&CONTROL
  calculation = 'scf',
  etot_conv_thr = 0.0001,
  forc_conv_thr = 0.00045,
  outdir = './tmp_In1.0Ga0.0As0.75Sb0.25_cube_3x3x3.6',
  prefix = 'In1.0Ga0.0As0.75Sb0.25_cube_3x3x3.6',
  pseudo_dir = '/work/i254/i254/gentles/data/pseudos/',
  restart_mode = 'from_scratch',
  verbosity = 'low',
/
&SYSTEM
  celldm(1) = 35.132088158431614,
  ecutwfc = 120,
  ibrav = 1,
  nat = 216,
  nbnd = 2160,
  ntyp = 4,
/
&ELECTRONS
  conv_thr = 1d-05,
  mixing_beta = 0.65,
/
&IONS
/
&CELL
  cell_dofree = 'all',
/
ATOMIC_SPECIES
  As  74.9216 As.pbe.NC-SR.standard.v0.5.UPF
  Ga  69.7230 Ga.pbe.NC-SR.standard.v0.5.UPF
  In  114.8180 In.pbe.NC-SR.standard.v0.5.UPF
  Sb  121.7600 Sb.pbe.NC-SR.standard.v0.5.UPF
ATOMIC_POSITIONS crystal
  In -0.001404 0.000541 -0.006128
  In -0.003298 0.171268 0.170448
  In 0.171420 -0.003915 0.172243
  In 0.176996 0.167910 0.004216
  Sb 0.084611 0.082995 0.085781
  As 0.083800 0.251761 0.250243
  As 0.251209 0.085534 0.248834
  As 0.253861 0.253353 0.086128
  In -0.000100 -0.000571 0.330939
  In 0.004386 0.173054 0.493611
  In 0.159579 -0.000191 0.497996
  In 0.166466 0.166342 0.331665
  As 0.081695 0.084082 0.412648
  As 0.085510 0.254152 0.578231
  Sb 0.250185 0.086519 0.581618
  As 0.247531 0.251284 0.413538
  In 0.003340 -0.005825 0.662001
  In -0.004493 0.163406 0.838453
  In 0.168707 0.001202 0.843760
  In 0.165967 0.176704 0.667447
  Sb 0.084596 0.082789 0.751173
  Sb 0.085789 0.251250 0.920334
  As 0.254444 0.084036 0.920188
  As 0.252915 0.251517 0.750169
  In -0.001653 0.337453 0.006852
  In 0.001177 0.501592 0.169282
  In 0.165837 0.333707 0.165879
  In 0.165300 0.499991 0.001484
  As 0.083096 0.419000 0.086424
  As 0.085373 0.582132 0.250569
  As 0.248042 0.416536 0.247512
  As 0.249223 0.580751 0.085540
  In 0.001542 0.336242 0.331180
  In 0.001658 0.500072 0.497909
  In 0.167174 0.336453 0.495934
  In 0.167353 0.498575 0.331139
  As 0.083834 0.418253 0.414266
  As 0.083442 0.583456 0.580072
  As 0.248275 0.417615 0.580754
  As 0.247732 0.582460 0.413205
  In -0.000314 0.334833 0.657209
  In -0.004614 0.503590 0.838102
  In 0.174813 0.335875 0.833754
  In 0.169324 0.503774 0.661688
  Sb 0.083025 0.419321 0.749224
  As 0.081916 0.583451 0.918720
  As 0.251008 0.418687 0.920679
  As 0.249316 0.580995 0.751094
  In -0.000010 0.666304 0.002388
  In 0.007285 0.832603 0.167283
  In 0.167225 0.664198 0.166722
  In 0.163761 0.835603 0.007013
  As 0.084597 0.747442 0.085140
  As 0.085333 0.915673 0.251624
  As 0.249220 0.747434 0.248147
  As 0.250942 0.915884 0.085535
  In 0.002168 0.660059 0.335634
  In -0.002434 0.830557 0.496806
  In 0.162335 0.663336 0.493045
  In 0.163755 0.826857 0.329905
  As 0.080606 0.747816 0.414402
  As 0.081285 0.911784 0.578727
  Sb 0.249718 0.746114 0.581878
  Sb 0.251403 0.916140 0.413391
  In 0.001003 0.664952 0.664194
  In 0.004768 0.828116 0.840074
  In 0.162870 0.662350 0.829840
  In 0.159897 0.831215 0.666464
  As 0.080661 0.746965 0.749934
  As 0.084555 0.915406 0.919975
  Sb 0.248934 0.747361 0.920282
  Sb 0.249739 0.917401 0.751153
  In 0.333401 -0.001116 0.002323
  In 0.333802 0.166397 0.165714
  In 0.496629 -0.004667 0.162067
  In 0.495556 0.160930 -0.002989
  As 0.414605 0.081534 0.083507
  As 0.412366 0.249330 0.249644
  Sb 0.582187 0.083962 0.248210
  Sb 0.581632 0.250546 0.081837
  In 0.337382 0.004644 0.327367
  In 0.335598 0.172074 0.493210
  In 0.492675 0.001615 0.497768
  In 0.497190 0.172501 0.334081
  As 0.416121 0.086872 0.413133
  As 0.416452 0.251000 0.581973
  Sb 0.581408 0.084917 0.584888
  As 0.583637 0.250584 0.414902
  In 0.340519 0.000772 0.666343
  In 0.333357 0.165823 0.833055
  In 0.501197 -0.000455 0.835152
  In 0.495078 0.171845 0.671882
  As 0.418335 0.083366 0.752978
  As 0.414132 0.248239 0.918186
  As 0.583774 0.081960 0.917279
  As 0.581559 0.250392 0.754067
  In 0.334198 0.334690 0.001140
  In 0.332169 0.499797 0.168026
  In 0.490998 0.333749 0.167531
  In 0.499890 0.498525 0.003122
  As 0.414080 0.418419 0.084123
  As 0.414534 0.585877 0.248989
  Sb 0.583659 0.418323 0.249550
  As 0.581452 0.583677 0.083766
  In 0.327182 0.331156 0.327781
  In 0.328213 0.503102 0.500233
  In 0.504088 0.330796 0.502000
  In 0.500085 0.509709 0.333647
  Sb 0.415439 0.416273 0.415185
  As 0.414656 0.583644 0.579138
  As 0.584145 0.417902 0.580085
  As 0.585730 0.586301 0.417475
  In 0.329930 0.332069 0.661334
  In 0.330682 0.503866 0.839280
  In 0.501541 0.329847 0.840238
  In 0.498179 0.500212 0.656955
  Sb 0.415917 0.416486 0.750815
  As 0.417060 0.581980 0.922433
  As 0.581846 0.415692 0.920905
  Sb 0.581721 0.584181 0.748753
  In 0.336463 0.662198 0.007699
  In 0.332008 0.831006 0.166133
  In 0.499860 0.666077 0.166858
  In 0.500120 0.833739 0.001891
  As 0.418120 0.749965 0.085264
  As 0.414626 0.914893 0.246219
  As 0.584251 0.747904 0.247746
  As 0.583914 0.915249 0.083653
  In 0.331129 0.666188 0.332823
  In 0.341165 0.831890 0.499469
  In 0.499667 0.666436 0.498700
  In 0.495845 0.828201 0.325727
  As 0.417504 0.747169 0.413622
  As 0.419476 0.916173 0.583003
  As 0.583551 0.746386 0.582543
  Sb 0.581027 0.913807 0.414017
  In 0.334461 0.659136 0.669248
  In 0.337863 0.836531 0.839665
  In 0.500255 0.666454 0.843694
  In 0.506951 0.836124 0.662229
  Sb 0.420345 0.750718 0.750558
  As 0.419313 0.919167 0.921013
  As 0.583019 0.752463 0.919848
  As 0.582931 0.915350 0.752866
  In 0.665698 -0.000510 0.002017
  In 0.673951 0.168829 0.166581
  In 0.831120 0.003279 0.170019
  In 0.832857 0.167795 0.003835
  As 0.750586 0.082977 0.083612
  As 0.753688 0.251050 0.251749
  As 0.916534 0.084489 0.251142
  As 0.914458 0.252434 0.086233
  In 0.672067 -0.000843 0.331479
  In 0.666660 0.163931 0.489828
  In 0.834222 -0.000075 0.491022
  In 0.836694 0.168842 0.333279
  As 0.752873 0.083807 0.410804
  Sb 0.748196 0.251398 0.579191
  Sb 0.918025 0.085280 0.580004
  As 0.919091 0.254360 0.413432
  In 0.666070 -0.001041 0.674883
  In 0.665413 0.168368 0.836620
  In 0.827835 0.001482 0.839678
  In 0.826240 0.162004 0.670780
  As 0.746204 0.082770 0.756400
  As 0.749961 0.249708 0.920204
  As 0.911716 0.084149 0.919545
  Sb 0.915619 0.251328 0.749654
  In 0.670712 0.337900 -0.000667
  In 0.669941 0.503509 0.162017
  In 0.833305 0.335413 0.169048
  In 0.838519 0.498484 0.006053
  As 0.752818 0.417622 0.084589
  As 0.749999 0.583241 0.248487
  As 0.917460 0.418348 0.249541
  As 0.919211 0.583123 0.085801
  In 0.670503 0.331264 0.335874
  In 0.668382 0.500349 0.498083
  In 0.837919 0.339172 0.495331
  In 0.833451 0.500579 0.330858
  As 0.751539 0.418680 0.414694
  As 0.751744 0.584383 0.579836
  As 0.917938 0.420486 0.579513
  As 0.916941 0.579971 0.415750
  In 0.658555 0.333668 0.667135
  In 0.662068 0.497311 0.838273
  In 0.834171 0.334080 0.842929
  In 0.836881 0.504509 0.662377
  Sb 0.751009 0.417015 0.750311
  Sb 0.750784 0.585421 0.920735
  As 0.917550 0.417854 0.921675
  As 0.917886 0.584867 0.748368
  In 0.661170 0.671184 0.005248
  In 0.666710 0.833736 0.167638
  In 0.829993 0.663587 0.162635
  In 0.828145 0.827604 -0.003109
  As 0.747164 0.749847 0.084816
  As 0.750482 0.916184 0.249183
  Sb 0.916702 0.747825 0.250352
  Sb 0.915101 0.914872 0.082642
  In 0.667751 0.666513 0.331420
  In 0.665364 0.823313 0.498115
  In 0.834949 0.664682 0.496157
  In 0.830266 0.835461 0.335071
  As 0.751186 0.747259 0.414585
  Sb 0.749950 0.914607 0.582062
  As 0.917710 0.745638 0.580257
  As 0.917702 0.915752 0.413278
  In 0.671429 0.668333 0.663754
  In 0.665775 0.832140 0.833794
  In 0.836537 0.669120 0.829439
  In 0.835525 0.824902 0.665740
  As 0.749899 0.749895 0.750161
  As 0.746217 0.914888 0.918398
  As 0.917230 0.747299 0.918266
  Sb 0.916920 0.914151 0.754364
K_POINTS automatic
  2 2 2 0 0 0

HUBBARD (atomic)
U In-5p -0.9725
U Ga-4p -3.2649999999999997
U As-4p 3.26
U Sb-5p 3.16
