&CONTROL
  calculation = 'scf',
  etot_conv_thr = 0.0001,
  forc_conv_thr = 0.00045,
  outdir = './tmp_In1.0Ga0.0As0.25Sb0.75_cube_3x3x3.6',
  prefix = 'In1.0Ga0.0As0.25Sb0.75_cube_3x3x3.6',
  pseudo_dir = '/work/i254/i254/gentles/data/pseudos/',
  restart_mode = 'from_scratch',
  verbosity = 'low',
/
&SYSTEM
  celldm(1) = 36.38835253715126,
  ecutwfc = 120,
  ibrav = 1,
  nat = 216,
  nbnd = 2160,
  ntyp = 4,
/
&ELECTRONS
  conv_thr = 1d-05,
  mixing_beta = 0.65,
/
&IONS
/
&CELL
  cell_dofree = 'all',
/
ATOMIC_SPECIES
  As  74.9216 As.pbe.NC-SR.standard.v0.5.UPF
  Ga  69.7230 Ga.pbe.NC-SR.standard.v0.5.UPF
  In  114.8180 In.pbe.NC-SR.standard.v0.5.UPF
  Sb  121.7600 Sb.pbe.NC-SR.standard.v0.5.UPF
ATOMIC_POSITIONS crystal
  In -0.002405 -0.002244 -0.001182
  In -0.000565 0.165592 0.166003
  In 0.167718 -0.002019 0.164515
  In 0.171150 0.160958 -0.005859
  Sb 0.083737 0.081966 0.080824
  Sb 0.080207 0.252480 0.251184
  Sb 0.250673 0.083042 0.249282
  Sb 0.249558 0.249135 0.081044
  In -0.000644 -0.001562 0.333722
  In -0.005250 0.171893 0.495655
  In 0.170481 0.004402 0.506520
  In 0.166155 0.167168 0.333921
  Sb 0.082440 0.083436 0.419077
  Sb 0.079372 0.251087 0.584688
  As 0.252560 0.083589 0.585077
  Sb 0.251956 0.248324 0.419770
  In -0.001828 -0.001445 0.668339
  In -0.005026 0.171156 0.827085
  In 0.169040 0.003294 0.837031
  In 0.169088 0.163009 0.662287
  Sb 0.083435 0.083965 0.749970
  Sb 0.083666 0.247274 0.914250
  As 0.252147 0.080921 0.915659
  Sb 0.252193 0.247521 0.748289
  In 0.000882 0.332317 -0.000746
  In -0.006578 0.497109 0.169899
  In 0.165960 0.334691 0.165018
  In 0.160811 0.507218 -0.004176
  Sb 0.081177 0.419941 0.082430
  Sb 0.079771 0.582891 0.250424
  Sb 0.251011 0.418148 0.249771
  Sb 0.251442 0.584645 0.080843
  In -0.009804 0.334907 0.333338
  In -0.007327 0.497333 0.505318
  In 0.164786 0.333901 0.500362
  In 0.164788 0.500067 0.334612
  Sb 0.077774 0.416893 0.417639
  Sb 0.081787 0.583171 0.584189
  Sb 0.252406 0.415017 0.584428
  Sb 0.253004 0.584043 0.415184
  In -0.009554 0.335468 0.667424
  In 0.002866 0.507084 0.836547
  In 0.166252 0.332665 0.830249
  In 0.167041 0.499401 0.667618
  Sb 0.079413 0.417748 0.750052
  As 0.081812 0.589429 0.915522
  Sb 0.247095 0.418260 0.916511
  Sb 0.247764 0.585658 0.753540
  In -0.004550 0.666749 -0.007682
  In -0.003493 0.831380 0.164527
  In 0.164679 0.665865 0.165212
  In 0.171270 0.829212 -0.004128
  Sb 0.081321 0.748590 0.078574
  Sb 0.082561 0.914563 0.248160
  Sb 0.251321 0.748505 0.249713
  Sb 0.253570 0.915973 0.079491
  In -0.004362 0.666559 0.335126
  In -0.002648 0.833541 0.501517
  In 0.167072 0.666221 0.499659
  In 0.167001 0.832810 0.334182
  Sb 0.081536 0.749966 0.417377
  Sb 0.084056 0.915668 0.586166
  Sb 0.247977 0.751114 0.586325
  Sb 0.249663 0.918318 0.418704
  In 0.003435 0.670696 0.671513
  In -0.002246 0.826018 0.834333
  In 0.163338 0.671698 0.837100
  In 0.161416 0.829266 0.675447
  As 0.081591 0.748832 0.755112
  Sb 0.083378 0.913628 0.915462
  As 0.250196 0.751400 0.913340
  Sb 0.250650 0.916261 0.752354
  In 0.335272 -0.000194 -0.008334
  In 0.335202 0.165846 0.164227
  In 0.502241 -0.000947 0.164407
  In 0.510040 0.165053 -0.000460
  Sb 0.419380 0.082462 0.078664
  Sb 0.419864 0.249638 0.247978
  Sb 0.585681 0.081548 0.250333
  As 0.585666 0.248443 0.081243
  In 0.335346 0.000494 0.334753
  In 0.335044 0.165255 0.508243
  In 0.510775 -0.002245 0.498747
  In 0.501146 0.165549 0.334537
  Sb 0.419583 0.082222 0.421314
  As 0.418103 0.247053 0.583623
  As 0.582108 0.082977 0.582270
  Sb 0.583233 0.249392 0.420435
  In 0.332081 0.000536 0.663807
  In 0.331539 0.162299 0.836732
  In 0.499664 -0.002239 0.839063
  In 0.499839 0.164781 0.660004
  Sb 0.417743 0.081724 0.750067
  Sb 0.418665 0.247677 0.918700
  As 0.583095 0.079269 0.916803
  Sb 0.582654 0.247081 0.748685
  In 0.334514 0.335905 0.000404
  In 0.338529 0.504471 0.169580
  In 0.506606 0.329459 0.161452
  In 0.506600 0.506729 0.004405
  Sb 0.421116 0.419064 0.084147
  As 0.420125 0.584266 0.248350
  Sb 0.584448 0.419062 0.248211
  As 0.585262 0.586479 0.086717
  In 0.334719 0.332736 0.333305
  In 0.335581 0.501163 0.501685
  In 0.496601 0.330375 0.504656
  In 0.498609 0.504158 0.330356
  Sb 0.418339 0.417336 0.416897
  Sb 0.420372 0.585875 0.585707
  Sb 0.584015 0.417577 0.584489
  Sb 0.586822 0.585380 0.416399
  In 0.340216 0.328193 0.663666
  In 0.334289 0.500205 0.834198
  In 0.500026 0.333323 0.833506
  In 0.506760 0.505547 0.671136
  Sb 0.418818 0.418059 0.748404
  Sb 0.420398 0.585342 0.915932
  Sb 0.584883 0.419281 0.916830
  As 0.588299 0.586368 0.747479
  In 0.330073 0.671609 -0.006897
  In 0.336136 0.832661 0.166345
  In 0.501794 0.662210 0.166684
  In 0.496808 0.836647 -0.005012
  Sb 0.418164 0.748384 0.080889
  Sb 0.420202 0.916207 0.251346
  Sb 0.587946 0.749274 0.249187
  Sb 0.586264 0.915032 0.079613
  In 0.340994 0.663898 0.328934
  In 0.334358 0.832989 0.500673
  In 0.507448 0.671091 0.505178
  In 0.507411 0.836384 0.336989
  Sb 0.421142 0.749898 0.417262
  Sb 0.421914 0.916435 0.582304
  As 0.588737 0.749236 0.585018
  As 0.587976 0.914371 0.417598
  In 0.333458 0.667866 0.669026
  In 0.335933 0.833843 0.838821
  In 0.508059 0.663536 0.829025
  In 0.506712 0.829599 0.664437
  Sb 0.420259 0.750420 0.751695
  As 0.416257 0.917133 0.916032
  Sb 0.585893 0.751158 0.916224
  Sb 0.585615 0.916581 0.752020
  In 0.667438 -0.003180 -0.009433
  In 0.664703 0.169456 0.163154
  In 0.825882 -0.005043 0.172680
  In 0.832662 0.165955 0.000883
  Sb 0.747169 0.079943 0.081895
  Sb 0.749324 0.252052 0.250961
  Sb 0.913759 0.083015 0.251484
  Sb 0.915225 0.251911 0.084778
  In 0.667587 -0.009183 0.332451
  In 0.664333 0.161767 0.504408
  In 0.831571 -0.000873 0.503299
  In 0.833807 0.170612 0.338418
  Sb 0.748195 0.080625 0.416663
  Sb 0.752602 0.249141 0.582888
  Sb 0.915833 0.085639 0.584837
  As 0.914596 0.252730 0.416193
  In 0.661474 0.004455 0.663230
  In 0.661146 0.160266 0.836468
  In 0.828629 -0.007178 0.837844
  In 0.835343 0.169671 0.672942
  Sb 0.749060 0.081005 0.751650
  Sb 0.747881 0.248864 0.915637
  Sb 0.914971 0.083171 0.913662
  As 0.914699 0.252461 0.749080
  In 0.664832 0.331456 0.003336
  In 0.666829 0.509592 0.167938
  In 0.835009 0.339090 0.170950
  In 0.830557 0.499359 -0.003357
  Sb 0.747830 0.419473 0.085639
  As 0.750429 0.586166 0.247427
  As 0.913991 0.418135 0.251063
  Sb 0.913467 0.583481 0.081771
  In 0.665962 0.335905 0.336857
  In 0.670947 0.504045 0.504020
  In 0.839080 0.334136 0.499401
  In 0.831380 0.502279 0.323644
  Sb 0.753688 0.420069 0.416910
  As 0.748395 0.586828 0.584496
  As 0.913121 0.416262 0.583971
  Sb 0.910040 0.582232 0.417763
  In 0.668178 0.332778 0.667029
  In 0.665568 0.506035 0.829620
  In 0.834955 0.331513 0.829371
  In 0.832872 0.503187 0.658331
  Sb 0.751684 0.420241 0.747632
  Sb 0.746978 0.589312 0.917779
  Sb 0.917927 0.416815 0.914524
  Sb 0.914895 0.585953 0.749849
  In 0.664515 0.669897 0.009289
  In 0.673676 0.832163 0.163760
  In 0.825826 0.667364 0.163756
  In 0.829167 0.827530 -0.004030
  As 0.750185 0.750214 0.082307
  As 0.747208 0.911797 0.251141
  Sb 0.910294 0.749439 0.250152
  Sb 0.909903 0.914769 0.082250
  In 0.675285 0.666352 0.332734
  In 0.663511 0.827690 0.496550
  In 0.824089 0.667764 0.500274
  In 0.823922 0.831765 0.335138
  As 0.747145 0.749361 0.417277
  Sb 0.744318 0.913910 0.583129
  Sb 0.913349 0.748503 0.585172
  Sb 0.912696 0.915349 0.416381
  In 0.668819 0.667528 0.667213
  In 0.674514 0.832226 0.832252
  In 0.831111 0.673894 0.832440
  In 0.825926 0.828914 0.669948
  As 0.748131 0.748451 0.750031
  As 0.750181 0.911540 0.916555
  As 0.913420 0.749581 0.914896
  Sb 0.913677 0.912101 0.751476
K_POINTS automatic
  2 2 2 0 0 0

HUBBARD (atomic)
U In-5p -1.0575
U Ga-4p -2.335
U As-4p 3.26
U Sb-5p 3.16
