&CONTROL
  calculation = 'scf',
  etot_conv_thr = 0.0001,
  forc_conv_thr = 0.00045,
  outdir = './tmp_In0.0Ga1.0As0.75Sb0.25_cube_3x3x3.2',
  prefix = 'In0.0Ga1.0As0.75Sb0.25_cube_3x3x3.2',
  pseudo_dir = '/work/i254/i254/gentles/data/pseudos/',
  restart_mode = 'from_scratch',
  verbosity = 'low',
/
&SYSTEM
  celldm(1) = 32.85535118435925,
  ecutwfc = 120,
  ibrav = 1,
  nat = 216,
  nbnd = 2160,
  ntyp = 4,
/
&ELECTRONS
  conv_thr = 1d-05,
  mixing_beta = 0.65,
/
&IONS
/
&CELL
  cell_dofree = 'all',
/
ATOMIC_SPECIES
  As  74.9216 As.pbe.NC-SR.standard.v0.5.UPF
  Ga  69.7230 Ga.pbe.NC-SR.standard.v0.5.UPF
  In  114.8180 In.pbe.NC-SR.standard.v0.5.UPF
  Sb  121.7600 Sb.pbe.NC-SR.standard.v0.5.UPF
ATOMIC_POSITIONS crystal
  Ga 0.001783 -0.002233 0.000432
  Ga 0.001450 0.166101 0.165285
  Ga 0.165265 -0.000945 0.167196
  Ga 0.171826 0.161499 0.005847
  As 0.083432 0.080844 0.084018
  As 0.085559 0.247257 0.246837
  As 0.247629 0.081474 0.249372
  As 0.252747 0.245863 0.087615
  Ga -0.000152 0.000913 0.331607
  Ga 0.004589 0.160969 0.502239
  Ga 0.168226 -0.002875 0.488068
  Ga 0.165277 0.165360 0.331382
  As 0.083717 0.082200 0.413602
  As 0.082794 0.249341 0.582377
  Sb 0.248807 0.081443 0.581859
  As 0.247606 0.251084 0.411433
  Ga -0.003609 0.001450 0.669317
  Ga 0.000168 0.156509 0.836273
  Ga 0.167179 -0.001856 0.833199
  Ga 0.155576 0.163565 0.667744
  As 0.081257 0.078431 0.751921
  Sb 0.082488 0.248553 0.920359
  As 0.250466 0.078565 0.919336
  Sb 0.246616 0.247966 0.750859
  Ga -0.010521 0.333581 0.001840
  Ga -0.002921 0.506157 0.170750
  Ga 0.172260 0.329320 0.170367
  Ga 0.166004 0.511293 0.002921
  Sb 0.082612 0.417822 0.085972
  As 0.084560 0.585118 0.251221
  As 0.252158 0.417743 0.250007
  As 0.251751 0.586733 0.086667
  Ga 0.001673 0.332798 0.322749
  Ga -0.004564 0.507136 0.502842
  Ga 0.169128 0.328308 0.500557
  Ga 0.171320 0.504734 0.330142
  Sb 0.083023 0.418561 0.416161
  As 0.083258 0.585853 0.582823
  As 0.247511 0.418535 0.577881
  As 0.250955 0.587178 0.415046
  Ga 0.002925 0.337887 0.661362
  Ga 0.000031 0.499467 0.833412
  Ga 0.160571 0.340207 0.830269
  Ga 0.162907 0.498224 0.660492
  As 0.080843 0.419956 0.746208
  As 0.081332 0.584494 0.915989
  Sb 0.250568 0.419740 0.920631
  Sb 0.247729 0.587115 0.748924
  Ga -0.002876 0.663157 -0.002810
  Ga -0.001924 0.838352 0.173033
  Ga 0.171082 0.665320 0.171652
  Ga 0.170663 0.838803 -0.002563
  Sb 0.083872 0.751150 0.084210
  As 0.084318 0.917749 0.252231
  As 0.252158 0.750181 0.250538
  As 0.249989 0.916960 0.085650
  Ga 0.002852 0.667617 0.332572
  Ga 0.001072 0.831440 0.490225
  Ga 0.167110 0.667874 0.499122
  Ga 0.167082 0.830803 0.330866
  As 0.085914 0.748761 0.413194
  Sb 0.084534 0.915017 0.582178
  As 0.251417 0.750546 0.581057
  As 0.249701 0.911880 0.411092
  Ga 0.004726 0.664393 0.672235
  Ga 0.000376 0.834450 0.833980
  Ga 0.161821 0.672809 0.839195
  Ga 0.171509 0.828705 0.670494
  As 0.083334 0.751880 0.753016
  As 0.084139 0.917470 0.915600
  As 0.250313 0.751694 0.918714
  As 0.250919 0.913831 0.752832
  Ga 0.332634 -0.002867 0.003260
  Ga 0.332766 0.163669 0.169314
  Ga 0.499185 -0.002574 0.167550
  Ga 0.491703 0.165085 0.003929
  As 0.414350 0.079858 0.086783
  As 0.412909 0.251464 0.249046
  As 0.583488 0.080242 0.248539
  Sb 0.582693 0.249916 0.088198
  Ga 0.328365 -0.007147 0.326473
  Ga 0.329929 0.171043 0.492199
  Ga 0.503388 -0.007081 0.504080
  Ga 0.498655 0.165855 0.322399
  Sb 0.416726 0.077991 0.412844
  Sb 0.418676 0.251734 0.581510
  As 0.585941 0.079257 0.582538
  Sb 0.584292 0.250063 0.412495
  Ga 0.335370 -0.006628 0.670068
  Ga 0.333779 0.160964 0.838394
  Ga 0.491687 -0.003435 0.835191
  Ga 0.500158 0.155188 0.666426
  As 0.414000 0.079329 0.751916
  As 0.412039 0.246164 0.921324
  Sb 0.583730 0.082217 0.918894
  Sb 0.586014 0.247506 0.749443
  Ga 0.334719 0.329155 0.006905
  Ga 0.332810 0.500697 0.166783
  Ga 0.494237 0.339448 0.171679
  Ga 0.496043 0.506423 0.005878
  As 0.414847 0.418896 0.085259
  As 0.415543 0.584276 0.249663
  As 0.580668 0.419460 0.249356
  As 0.582183 0.585743 0.085253
  Ga 0.333017 0.335041 0.333362
  Ga 0.331692 0.502982 0.496617
  Ga 0.501847 0.343759 0.496753
  Ga 0.499226 0.503187 0.332387
  As 0.415362 0.420864 0.414458
  As 0.416142 0.585230 0.578227
  As 0.585477 0.421312 0.579977
  As 0.580030 0.586568 0.415573
  Ga 0.326587 0.338536 0.662198
  Ga 0.338817 0.509029 0.839527
  Ga 0.495540 0.326271 0.839965
  Ga 0.500349 0.502119 0.657850
  Sb 0.417007 0.418344 0.750309
  As 0.416254 0.590344 0.923084
  Sb 0.584539 0.418358 0.919687
  Sb 0.583454 0.588284 0.748653
  Ga 0.332040 0.670634 0.003926
  Ga 0.333281 0.832182 0.166283
  Ga 0.498429 0.667235 0.168457
  Ga 0.498020 0.833481 0.002784
  As 0.416334 0.750701 0.085345
  As 0.415756 0.914395 0.247794
  As 0.579566 0.750418 0.250461
  As 0.580308 0.913995 0.086316
  Ga 0.334646 0.668928 0.333214
  Ga 0.331834 0.833863 0.497291
  Ga 0.497818 0.668327 0.495724
  Ga 0.498089 0.834108 0.332509
  As 0.415811 0.752044 0.415191
  As 0.415227 0.912598 0.582820
  As 0.582042 0.750016 0.576577
  As 0.582329 0.913896 0.417275
  Ga 0.337059 0.670198 0.661266
  Ga 0.332780 0.831787 0.834500
  Ga 0.495295 0.672296 0.838667
  Ga 0.496418 0.826595 0.660975
  As 0.415282 0.750528 0.749879
  As 0.413607 0.913406 0.919848
  As 0.579620 0.748369 0.923359
  Sb 0.581625 0.914334 0.747509
  Ga 0.666587 -0.001514 0.012234
  Ga 0.671322 0.160687 0.170655
  Ga 0.839407 0.002779 0.162262
  Ga 0.835079 0.165620 0.001165
  As 0.753152 0.083685 0.084971
  As 0.751958 0.248167 0.247159
  As 0.918474 0.083689 0.247939
  As 0.914626 0.248221 0.085663
  Ga 0.660785 0.001835 0.338624
  Ga 0.669938 0.163921 0.502074
  Ga 0.835423 -0.001539 0.496644
  Ga 0.829355 0.161644 0.329621
  As 0.749536 0.081251 0.416950
  As 0.749002 0.249679 0.584483
  As 0.916381 0.081196 0.581691
  Sb 0.917723 0.247674 0.415502
  Ga 0.672183 0.002233 0.663853
  Ga 0.678761 0.165487 0.834115
  Ga 0.837602 0.002594 0.831546
  Ga 0.831078 0.163754 0.661407
  As 0.755001 0.082122 0.748013
  As 0.756222 0.249882 0.917990
  As 0.916789 0.080137 0.920348
  Sb 0.918016 0.249434 0.749204
  Ga 0.675772 0.331291 0.001949
  Ga 0.662091 0.496988 0.162422
  Ga 0.833656 0.332708 0.166671
  Ga 0.833181 0.501708 0.003476
  As 0.752176 0.416279 0.084728
  Sb 0.749997 0.584220 0.249683
  As 0.917535 0.416650 0.246696
  As 0.915872 0.585490 0.083839
  Ga 0.668491 0.333893 0.322188
  Ga 0.662714 0.506589 0.499741
  Ga 0.833998 0.333087 0.507844
  Ga 0.843773 0.499980 0.333324
  Sb 0.750678 0.417942 0.416168
  As 0.750279 0.581795 0.581120
  As 0.916461 0.420764 0.584618
  As 0.918683 0.586915 0.415012
  Ga 0.669238 0.339283 0.662477
  Ga 0.674744 0.502566 0.832141
  Ga 0.831966 0.338265 0.836012
  Ga 0.834701 0.501897 0.667731
  As 0.752357 0.418758 0.748537
  As 0.752588 0.584034 0.919496
  As 0.914308 0.420255 0.917974
  As 0.918926 0.582225 0.752114
  Ga 0.666725 0.665381 0.001061
  Ga 0.661920 0.828092 0.163957
  Ga 0.836093 0.672240 0.163408
  Ga 0.839029 0.829201 0.004194
  As 0.749533 0.749627 0.082040
  Sb 0.749429 0.916578 0.249517
  As 0.918375 0.750288 0.251395
  As 0.919866 0.916076 0.084154
  Ga 0.661289 0.671721 0.335963
  Ga 0.667281 0.834085 0.498843
  Ga 0.827959 0.662117 0.494994
  Ga 0.835921 0.828697 0.336424
  As 0.748092 0.750025 0.417356
  As 0.751270 0.919238 0.579989
  Sb 0.916077 0.748384 0.582263
  As 0.917749 0.916521 0.413237
  Ga 0.667887 0.669664 0.655103
  Ga 0.660473 0.827032 0.840550
  Ga 0.838972 0.663564 0.837609
  Ga 0.834584 0.843876 0.666684
  Sb 0.751784 0.750109 0.749934
  Sb 0.751379 0.916140 0.919970
  As 0.919233 0.749571 0.917156
  As 0.918504 0.918804 0.752213
K_POINTS automatic
  2 2 2 0 0 0

HUBBARD (atomic)
U In-5p -0.9725
U Ga-4p -3.2649999999999997
U As-4p 5.84
U Sb-5p 4.89
