&CONTROL
  calculation = 'scf',
  etot_conv_thr = 0.0001,
  forc_conv_thr = 0.00045,
  outdir = './tmp_In1.0Ga0.0As0.25Sb0.75_cube_3x3x3.2',
  prefix = 'In1.0Ga0.0As0.25Sb0.75_cube_3x3x3.2',
  pseudo_dir = '/work/i254/i254/gentles/data/pseudos/',
  restart_mode = 'from_scratch',
  verbosity = 'low',
/
&SYSTEM
  celldm(1) = 36.37862034698605,
  ecutwfc = 120,
  ibrav = 1,
  nat = 216,
  nbnd = 2160,
  ntyp = 4,
/
&ELECTRONS
  conv_thr = 1d-05,
  mixing_beta = 0.65,
/
&IONS
/
&CELL
  cell_dofree = 'all',
/
ATOMIC_SPECIES
  As  74.9216 As.pbe.NC-SR.standard.v0.5.UPF
  Ga  69.7230 Ga.pbe.NC-SR.standard.v0.5.UPF
  In  114.8180 In.pbe.NC-SR.standard.v0.5.UPF
  Sb  121.7600 Sb.pbe.NC-SR.standard.v0.5.UPF
ATOMIC_POSITIONS crystal
  In -0.001131 0.002014 -0.001143
  In -0.001239 0.173867 0.165850
  In 0.165363 -0.000696 0.166251
  In 0.161510 0.170604 -0.005663
  Sb 0.081830 0.086581 0.083014
  As 0.081657 0.251170 0.245744
  Sb 0.249258 0.084856 0.248804
  Sb 0.246532 0.252859 0.079440
  In -0.003859 -0.004346 0.336766
  In -0.001142 0.166741 0.501636
  In 0.163052 -0.004454 0.502367
  In 0.160420 0.170420 0.326990
  Sb 0.081974 0.082792 0.416387
  Sb 0.082597 0.251413 0.585624
  Sb 0.250045 0.080779 0.584234
  Sb 0.246693 0.251262 0.414300
  In 0.004067 -0.004099 0.661423
  In -0.000765 0.176767 0.834254
  In 0.166744 0.002372 0.833279
  In 0.167934 0.167407 0.668731
  Sb 0.080384 0.085491 0.750376
  As 0.081043 0.253784 0.918306
  Sb 0.251669 0.085289 0.917343
  Sb 0.248452 0.252861 0.756009
  In 0.003877 0.333375 0.003395
  In 0.010370 0.500769 0.166155
  In 0.159381 0.333926 0.165170
  In 0.170375 0.495489 0.005112
  As 0.084817 0.416713 0.083122
  As 0.085240 0.584469 0.250025
  Sb 0.246561 0.418362 0.246616
  As 0.247343 0.583692 0.083405
  In 0.004096 0.329300 0.328628
  In -0.005106 0.502049 0.497127
  In 0.165627 0.336906 0.500424
  In 0.163515 0.504263 0.330161
  Sb 0.081241 0.418251 0.414324
  Sb 0.080334 0.583999 0.582145
  Sb 0.252150 0.419553 0.583458
  Sb 0.247745 0.586661 0.416342
  In -0.005596 0.329203 0.672216
  In -0.003474 0.503619 0.830882
  In 0.164499 0.336265 0.843917
  In 0.164319 0.499792 0.666993
  Sb 0.081268 0.415289 0.752623
  Sb 0.086986 0.580783 0.917455
  As 0.248585 0.415825 0.920852
  Sb 0.250523 0.582796 0.750811
  In 0.001835 0.665431 0.000243
  In 0.001542 0.831442 0.166130
  In 0.170131 0.661086 0.170509
  In 0.170689 0.828491 -0.003849
  Sb 0.087813 0.746750 0.084496
  Sb 0.083591 0.914070 0.252320
  As 0.249257 0.746374 0.247611
  Sb 0.250131 0.912846 0.084155
  In 0.004896 0.662637 0.335355
  In 0.004517 0.834358 0.495122
  In 0.160961 0.672053 0.496856
  In 0.166858 0.822494 0.330657
  As 0.082182 0.749223 0.413786
  As 0.082103 0.914497 0.579720
  Sb 0.249593 0.749282 0.583407
  Sb 0.246781 0.911908 0.415774
  In -0.004472 0.661944 0.671232
  In -0.000516 0.834352 0.833571
  In 0.172043 0.670427 0.837722
  In 0.161150 0.835040 0.661734
  Sb 0.082951 0.748773 0.750874
  Sb 0.084741 0.916642 0.917537
  As 0.252342 0.748221 0.919125
  Sb 0.247141 0.914037 0.750254
  In 0.334075 -0.001572 0.001873
  In 0.332145 0.168803 0.162902
  In 0.502472 0.002417 0.169114
  In 0.500316 0.168035 -0.008950
  Sb 0.419655 0.085250 0.081186
  Sb 0.417215 0.250069 0.249318
  As 0.582771 0.081893 0.249568
  Sb 0.583404 0.248745 0.080240
  In 0.331228 -0.001439 0.334108
  In 0.331912 0.165974 0.497678
  In 0.505841 0.004067 0.505616
  In 0.503844 0.162971 0.329175
  Sb 0.419247 0.081906 0.416565
  Sb 0.416893 0.248031 0.584040
  As 0.586194 0.083085 0.586319
  Sb 0.585957 0.247512 0.416661
  In 0.335214 -0.001332 0.670530
  In 0.338216 0.171164 0.836736
  In 0.505131 0.001929 0.836885
  In 0.506513 0.163892 0.664138
  Sb 0.420357 0.084892 0.752148
  As 0.416712 0.250703 0.916604
  As 0.583975 0.086108 0.914702
  Sb 0.587245 0.248816 0.752583
  In 0.333253 0.332650 -0.007397
  In 0.328898 0.503562 0.160721
  In 0.499287 0.334811 0.164247
  In 0.501695 0.499813 -0.001379
  Sb 0.414320 0.417055 0.079574
  Sb 0.414589 0.584661 0.247928
  Sb 0.582310 0.418652 0.250897
  Sb 0.583659 0.585517 0.082125
  In 0.332862 0.336547 0.332331
  In 0.336595 0.507433 0.502693
  In 0.500630 0.332766 0.499860
  In 0.502883 0.507053 0.336590
  Sb 0.417548 0.420636 0.417556
  As 0.418835 0.585028 0.582430
  Sb 0.582874 0.419150 0.584890
  As 0.582227 0.585444 0.419495
  In 0.332810 0.333234 0.668564
  In 0.327225 0.496023 0.839403
  In 0.496783 0.328322 0.835652
  In 0.494605 0.504391 0.665470
  Sb 0.415229 0.417283 0.753126
  Sb 0.413371 0.584450 0.919369
  Sb 0.584714 0.413535 0.914493
  Sb 0.584010 0.584108 0.749181
  In 0.327978 0.667882 0.004946
  In 0.332459 0.824895 0.166798
  In 0.494431 0.670297 0.161430
  In 0.496890 0.825616 0.001985
  As 0.412100 0.748001 0.082317
  Sb 0.414854 0.915090 0.248562
  Sb 0.581300 0.749364 0.249327
  Sb 0.582307 0.915825 0.082341
  In 0.329370 0.670297 0.329520
  In 0.334898 0.833193 0.500422
  In 0.502822 0.663392 0.503362
  In 0.499398 0.834176 0.335088
  Sb 0.417625 0.746895 0.417732
  Sb 0.419673 0.917060 0.584377
  As 0.581167 0.747822 0.582212
  Sb 0.584431 0.917431 0.418595
  In 0.337576 0.662148 0.663470
  In 0.329952 0.828029 0.835816
  In 0.502936 0.668291 0.838228
  In 0.504449 0.829869 0.663941
  Sb 0.418470 0.748268 0.749881
  Sb 0.417502 0.914077 0.916618
  As 0.580430 0.750286 0.918646
  Sb 0.586296 0.917262 0.749339
  In 0.661412 0.005196 -0.004053
  In 0.661537 0.162696 0.169372
  In 0.833237 0.002059 0.164230
  In 0.835181 0.176644 0.000593
  Sb 0.748959 0.087185 0.080597
  Sb 0.750853 0.249519 0.246562
  Sb 0.917668 0.084479 0.249856
  As 0.920431 0.252830 0.081684
  In 0.663292 0.003182 0.330172
  In 0.665330 0.162916 0.506665
  In 0.836751 -0.005963 0.496152
  In 0.832070 0.166823 0.334315
  Sb 0.749207 0.081689 0.418019
  Sb 0.750684 0.249012 0.588875
  Sb 0.914657 0.081590 0.584848
  Sb 0.917187 0.251399 0.416277
  In 0.669370 0.008230 0.668677
  In 0.671355 0.163575 0.837996
  In 0.829448 0.005353 0.828239
  In 0.834256 0.165727 0.676152
  As 0.748985 0.086643 0.751833
  As 0.752522 0.248336 0.914439
  Sb 0.914952 0.088441 0.915248
  As 0.913830 0.250069 0.752888
  In 0.671804 0.327593 -0.005901
  In 0.667906 0.499480 0.165828
  In 0.839405 0.331035 0.161717
  In 0.834239 0.499544 -0.000262
  Sb 0.750818 0.413779 0.081268
  Sb 0.750156 0.582473 0.253040
  Sb 0.921658 0.417214 0.247475
  Sb 0.919192 0.581826 0.085398
  In 0.669267 0.334244 0.332362
  In 0.663448 0.504327 0.497094
  In 0.832163 0.333603 0.502102
  In 0.841033 0.503083 0.335486
  Sb 0.751613 0.419941 0.416635
  Sb 0.751535 0.583412 0.583436
  Sb 0.915011 0.417799 0.586968
  As 0.920729 0.583901 0.414572
  In 0.670662 0.339161 0.671848
  In 0.670094 0.494416 0.827888
  In 0.830129 0.329113 0.831220
  In 0.831741 0.499484 0.674647
  As 0.753431 0.415014 0.752139
  Sb 0.749623 0.581958 0.913772
  Sb 0.916817 0.413772 0.915439
  As 0.915146 0.581223 0.750150
  In 0.663329 0.669561 -0.006274
  In 0.668386 0.833198 0.167345
  In 0.833337 0.666599 0.168124
  In 0.832455 0.834204 -0.002297
  Sb 0.749652 0.748962 0.081087
  Sb 0.752000 0.918157 0.251445
  Sb 0.918528 0.748947 0.253633
  Sb 0.917143 0.915935 0.082455
  In 0.661790 0.663813 0.337121
  In 0.662784 0.828523 0.504727
  In 0.839674 0.662086 0.495807
  In 0.836942 0.836200 0.339101
  Sb 0.749986 0.748263 0.418624
  Sb 0.747941 0.917808 0.583666
  Sb 0.919456 0.749927 0.581617
  As 0.919319 0.914406 0.418470
  In 0.663455 0.670616 0.661445
  In 0.662292 0.829311 0.837908
  In 0.836267 0.661877 0.828490
  In 0.832346 0.833217 0.666086
  Sb 0.748365 0.748708 0.750419
  Sb 0.747621 0.919346 0.914683
  Sb 0.916456 0.747918 0.915225
  Sb 0.916604 0.918423 0.748607
K_POINTS automatic
  2 2 2 0 0 0

HUBBARD (atomic)
U In-5p -1.0575
U Ga-4p -2.335
U As-4p 3.26
U Sb-5p 3.16
