&CONTROL
  calculation = 'scf',
  etot_conv_thr = 0.0001,
  forc_conv_thr = 0.00045,
  outdir = './tmp_In0.0Ga1.0As0.25Sb0.75_cube_3x3x3.8',
  prefix = 'In0.0Ga1.0As0.25Sb0.75_cube_3x3x3.8',
  pseudo_dir = '/work/i254/i254/gentles/data/pseudos/',
  restart_mode = 'from_scratch',
  verbosity = 'low',
/
&SYSTEM
  celldm(1) = 34.031551205807204,
  ecutwfc = 120,
  ibrav = 1,
  nat = 216,
  nbnd = 2160,
  ntyp = 4,
/
&ELECTRONS
  conv_thr = 1d-05,
  mixing_beta = 0.65,
/
&IONS
/
&CELL
  cell_dofree = 'all',
/
ATOMIC_SPECIES
  As  74.9216 As.pbe.NC-SR.standard.v0.5.UPF
  Ga  69.7230 Ga.pbe.NC-SR.standard.v0.5.UPF
  In  114.8180 In.pbe.NC-SR.standard.v0.5.UPF
  Sb  121.7600 Sb.pbe.NC-SR.standard.v0.5.UPF
ATOMIC_POSITIONS crystal
  Ga 0.001921 -0.002439 -0.002531
  Ga 0.001808 0.165299 0.167973
  Ga 0.169916 0.000732 0.164759
  Ga 0.171768 0.166731 -0.001908
  Sb 0.085292 0.083384 0.081012
  Sb 0.084770 0.249881 0.253334
  Sb 0.254244 0.082874 0.251207
  Sb 0.254364 0.251446 0.084077
  Ga 0.000939 -0.001615 0.333002
  Ga -0.003095 0.171787 0.497486
  Ga 0.167867 -0.001455 0.502526
  Ga 0.173168 0.168623 0.338324
  Sb 0.084301 0.084548 0.417861
  Sb 0.086784 0.249716 0.584787
  Sb 0.252405 0.081983 0.587401
  As 0.253223 0.248065 0.415452
  Ga 0.006084 0.005529 0.669859
  Ga 0.005915 0.159826 0.829771
  Ga 0.170289 -0.000636 0.823746
  Ga 0.168510 0.164938 0.675122
  As 0.087330 0.081890 0.750449
  Sb 0.086860 0.248623 0.912234
  Sb 0.253896 0.082289 0.911525
  As 0.250505 0.247477 0.750510
  Ga 0.000338 0.330584 -0.002872
  Ga 0.001276 0.498511 0.169085
  Ga 0.167397 0.335044 0.167465
  Ga 0.167918 0.499854 -0.002746
  Sb 0.083120 0.416086 0.081630
  Sb 0.086169 0.585432 0.250907
  Sb 0.255107 0.415951 0.251366
  Sb 0.251171 0.584997 0.081103
  Ga -0.003773 0.331184 0.338125
  Ga 0.000936 0.500535 0.499764
  Ga 0.173434 0.327860 0.495323
  Ga 0.175097 0.505775 0.336357
  Sb 0.087385 0.416682 0.416133
  Sb 0.084039 0.585976 0.584401
  Sb 0.248144 0.416243 0.583969
  As 0.252780 0.585673 0.417654
  Ga 0.006194 0.338688 0.670397
  Ga 0.005813 0.498424 0.827343
  Ga 0.169585 0.331820 0.825039
  Ga 0.161180 0.496716 0.670892
  As 0.086176 0.415699 0.750881
  Sb 0.085128 0.587016 0.914283
  Sb 0.252113 0.413688 0.914660
  Sb 0.247363 0.585485 0.750596
  Ga 0.003468 0.670269 0.003779
  Ga 0.004835 0.828559 0.160414
  Ga 0.165035 0.671818 0.162588
  Ga 0.168791 0.825991 -0.000009
  As 0.085833 0.749997 0.080490
  Sb 0.085344 0.914919 0.247958
  Sb 0.252415 0.751216 0.251865
  Sb 0.253772 0.913965 0.082295
  Ga -0.000615 0.668006 0.334958
  Ga -0.004888 0.827797 0.508856
  Ga 0.173297 0.663114 0.497651
  Ga 0.167544 0.833546 0.336809
  Sb 0.083264 0.749130 0.421284
  Sb 0.084332 0.914460 0.587912
  Sb 0.252497 0.752380 0.583055
  Sb 0.255422 0.916127 0.418714
  Ga 0.003373 0.676783 0.666943
  Ga 0.005824 0.830095 0.827942
  Ga 0.167382 0.677219 0.832307
  Ga 0.170527 0.834380 0.674732
  As 0.087089 0.753019 0.749136
  Sb 0.088883 0.914483 0.913360
  As 0.248664 0.754121 0.914748
  As 0.252803 0.916852 0.750053
  Ga 0.338391 -0.004218 -0.005450
  Ga 0.338362 0.169598 0.170197
  Ga 0.499966 -0.000743 0.174946
  Ga 0.493999 0.168522 -0.005824
  Sb 0.417370 0.081656 0.084295
  As 0.417359 0.248686 0.249549
  As 0.580576 0.081191 0.250278
  Sb 0.579062 0.246337 0.085386
  Ga 0.340016 -0.006141 0.329159
  Ga 0.330466 0.167581 0.495233
  Ga 0.497634 -0.008537 0.499490
  Ga 0.500222 0.166153 0.323713
  Sb 0.418584 0.081915 0.413594
  Sb 0.414109 0.246641 0.585134
  Sb 0.579909 0.076899 0.584512
  Sb 0.579843 0.247913 0.415292
  Ga 0.337871 -0.005299 0.669938
  Ga 0.336685 0.169158 0.829128
  Ga 0.494694 -0.005102 0.829495
  Ga 0.492325 0.156086 0.670424
  As 0.414184 0.078379 0.751788
  As 0.414472 0.248281 0.914679
  Sb 0.579216 0.079895 0.915656
  Sb 0.578390 0.246295 0.749240
  Ga 0.340954 0.332013 -0.001808
  Ga 0.338658 0.496978 0.162024
  Ga 0.491379 0.332294 0.167245
  Ga 0.494571 0.496444 0.008465
  As 0.415849 0.413065 0.083428
  Sb 0.416891 0.585779 0.251672
  Sb 0.581489 0.416529 0.248119
  Sb 0.581562 0.585141 0.086957
  Ga 0.335384 0.322593 0.332913
  Ga 0.328128 0.503625 0.497151
  Ga 0.498439 0.333185 0.501628
  Ga 0.499861 0.499274 0.334980
  Sb 0.412815 0.414614 0.416648
  Sb 0.416119 0.585486 0.579582
  Sb 0.585291 0.419189 0.581777
  Sb 0.584407 0.586679 0.416274
  Ga 0.327564 0.328031 0.669953
  Ga 0.333114 0.502273 0.833523
  Ga 0.494505 0.328033 0.837533
  Ga 0.498660 0.499907 0.664787
  Sb 0.414496 0.414666 0.750360
  Sb 0.416403 0.584757 0.919409
  Sb 0.578436 0.415586 0.919622
  Sb 0.584057 0.585917 0.746994
  Ga 0.328664 0.674278 -0.005653
  Ga 0.341104 0.838748 0.172833
  Ga 0.502499 0.674195 0.171741
  Ga 0.494980 0.841436 -0.007655
  Sb 0.417339 0.754595 0.081434
  As 0.422191 0.915123 0.252847
  As 0.580824 0.751733 0.253661
  Sb 0.580383 0.917268 0.085082
  Ga 0.333979 0.668363 0.341872
  Ga 0.343725 0.834223 0.502542
  Ga 0.496817 0.674091 0.495124
  Ga 0.499324 0.832474 0.334140
  As 0.417565 0.753570 0.416155
  As 0.418569 0.916755 0.585099
  Sb 0.582734 0.754147 0.582781
  As 0.576529 0.916006 0.413995
  Ga 0.333736 0.667638 0.666840
  Ga 0.327344 0.839141 0.837623
  Ga 0.499260 0.668542 0.832665
  Ga 0.499308 0.841273 0.667165
  Sb 0.413632 0.755628 0.752027
  As 0.414216 0.917503 0.911685
  Sb 0.582890 0.754581 0.913281
  As 0.578925 0.916379 0.749977
  Ga 0.667573 0.002767 0.004696
  Ga 0.663627 0.155706 0.167820
  Ga 0.825918 0.003021 0.164230
  Ga 0.827818 0.161185 0.005048
  As 0.746766 0.081979 0.084300
  Sb 0.747827 0.246458 0.250313
  Sb 0.914282 0.082939 0.250999
  Sb 0.916070 0.247579 0.083388
  Ga 0.654065 0.000294 0.334622
  Ga 0.663102 0.164060 0.501323
  Ga 0.831414 -0.001555 0.502672
  Ga 0.836253 0.170165 0.338754
  Sb 0.747074 0.081564 0.416619
  Sb 0.749351 0.250179 0.580932
  Sb 0.918044 0.084265 0.582946
  As 0.917330 0.250278 0.417181
  Ga 0.660940 -0.006394 0.672091
  Ga 0.664642 0.164628 0.833285
  Ga 0.834308 -0.003238 0.833051
  Ga 0.832704 0.166646 0.665861
  Sb 0.749154 0.080731 0.749834
  Sb 0.748259 0.248692 0.918909
  Sb 0.916452 0.082261 0.916705
  Sb 0.921139 0.248362 0.749232
  Ga 0.664426 0.333418 0.003788
  Ga 0.669921 0.505217 0.170865
  Ga 0.832154 0.332587 0.166829
  Ga 0.835793 0.502917 -0.002328
  Sb 0.750812 0.420011 0.083646
  As 0.746428 0.585987 0.250553
  Sb 0.913576 0.417626 0.253097
  Sb 0.917609 0.584732 0.086311
  Ga 0.664597 0.333378 0.334094
  Ga 0.672267 0.508805 0.504769
  Ga 0.838150 0.330131 0.495340
  Ga 0.826087 0.507353 0.330180
  Sb 0.750098 0.419182 0.417412
  As 0.751317 0.588529 0.585144
  Sb 0.916887 0.416843 0.583708
  Sb 0.913412 0.585262 0.418406
  Ga 0.664743 0.332536 0.666683
  Ga 0.663279 0.499104 0.833737
  Ga 0.834843 0.331311 0.833321
  Ga 0.829602 0.505890 0.661681
  Sb 0.749958 0.417141 0.749407
  Sb 0.748407 0.585567 0.914413
  Sb 0.919420 0.417878 0.913713
  Sb 0.918274 0.586932 0.746439
  Ga 0.663598 0.668258 -0.000834
  Ga 0.658709 0.828541 0.171293
  Ga 0.827739 0.662304 0.171437
  Ga 0.831383 0.832934 -0.000675
  Sb 0.747199 0.748786 0.086203
  Sb 0.742748 0.917919 0.250990
  Sb 0.916588 0.749883 0.247743
  Sb 0.915765 0.916971 0.083510
  Ga 0.665373 0.668429 0.326104
  Ga 0.659728 0.838616 0.491502
  Ga 0.833591 0.668535 0.509083
  Ga 0.833235 0.835325 0.332630
  Sb 0.749125 0.749818 0.416253
  Sb 0.746204 0.912555 0.584014
  As 0.915588 0.748553 0.587552
  Sb 0.917823 0.914976 0.420035
  Ga 0.673675 0.669895 0.665135
  Ga 0.664554 0.833987 0.822044
  Ga 0.828919 0.671830 0.828024
  Ga 0.832934 0.825783 0.665179
  As 0.749879 0.751667 0.746619
  Sb 0.745684 0.915760 0.914775
  Sb 0.917793 0.750403 0.914869
  Sb 0.918676 0.914807 0.746573
K_POINTS automatic
  2 2 2 0 0 0

HUBBARD (atomic)
U In-5p -1.0575
U Ga-4p -2.335
U As-4p 5.84
U Sb-5p 4.89
