&CONTROL
  calculation = 'scf',
  etot_conv_thr = 0.0001,
  forc_conv_thr = 0.00045,
  outdir = './tmp_In0.0Ga1.0As0.5Sb0.5_cube_3x3x3.8',
  prefix = 'In0.0Ga1.0As0.5Sb0.5_cube_3x3x3.8',
  pseudo_dir = '/work/i254/i254/gentles/data/pseudos/',
  restart_mode = 'from_scratch',
  verbosity = 'low',
/
&SYSTEM
  celldm(1) = 33.461400047498365,
  ecutwfc = 120,
  ibrav = 1,
  nat = 216,
  nbnd = 2160,
  ntyp = 4,
/
&ELECTRONS
  conv_thr = 1d-05,
  mixing_beta = 0.65,
/
&IONS
/
&CELL
  cell_dofree = 'all',
/
ATOMIC_SPECIES
  As  74.9216 As.pbe.NC-SR.standard.v0.5.UPF
  Ga  69.7230 Ga.pbe.NC-SR.standard.v0.5.UPF
  In  114.8180 In.pbe.NC-SR.standard.v0.5.UPF
  Sb  121.7600 Sb.pbe.NC-SR.standard.v0.5.UPF
ATOMIC_POSITIONS crystal
  Ga 0.001354 0.001861 -0.009907
  Ga -0.007963 0.171209 0.161467
  Ga 0.171687 -0.003181 0.170688
  Ga 0.167376 0.176028 -0.002512
  Sb 0.084687 0.085081 0.082344
  Sb 0.084679 0.248879 0.248043
  As 0.254575 0.079215 0.247836
  As 0.253406 0.247501 0.080897
  Ga 0.003747 -0.006049 0.329166
  Ga -0.008279 0.160998 0.504798
  Ga 0.166346 -0.002299 0.500184
  Ga 0.173032 0.159522 0.326976
  Sb 0.082449 0.082624 0.416074
  Sb 0.078973 0.252413 0.583838
  Sb 0.254283 0.081105 0.584258
  Sb 0.252314 0.247347 0.415787
  Ga -0.010086 -0.001280 0.666755
  Ga 0.001569 0.167372 0.840434
  Ga 0.166654 -0.009153 0.831081
  Ga 0.166906 0.166068 0.667046
  Sb 0.080665 0.080315 0.750728
  As 0.080136 0.252895 0.917344
  Sb 0.251195 0.081888 0.916355
  Sb 0.250975 0.250084 0.753226
  Ga -0.006202 0.331542 -0.004182
  Ga -0.004977 0.504575 0.160400
  Ga 0.172536 0.328767 0.159642
  Ga 0.159024 0.505050 -0.005238
  Sb 0.080948 0.415094 0.080228
  Sb 0.080551 0.586238 0.251388
  Sb 0.250286 0.417528 0.248047
  Sb 0.250829 0.582560 0.081890
  Ga 0.003333 0.337077 0.337092
  Ga -0.002208 0.502004 0.502094
  Ga 0.161401 0.336104 0.493844
  Ga 0.160362 0.496644 0.337314
  As 0.078773 0.419665 0.419171
  As 0.078145 0.584256 0.584084
  Sb 0.248305 0.417274 0.583011
  Sb 0.246989 0.586670 0.418969
  Ga -0.003094 0.343708 0.667972
  Ga -0.002867 0.500388 0.832702
  Ga 0.156668 0.335452 0.832729
  Ga 0.155972 0.500484 0.668020
  As 0.077796 0.419720 0.751825
  As 0.076754 0.582652 0.914186
  Sb 0.248332 0.415251 0.918631
  Sb 0.246795 0.584826 0.748987
  Ga -0.004375 0.663019 -0.005465
  Ga 0.004736 0.837710 0.171698
  Ga 0.172579 0.671793 0.170594
  Ga 0.165939 0.842514 0.002146
  Sb 0.082600 0.749662 0.082232
  As 0.088086 0.915249 0.250725
  As 0.247922 0.755101 0.250686
  As 0.250845 0.919005 0.086438
  Ga -0.001081 0.666607 0.345739
  Ga -0.001330 0.823995 0.501018
  Ga 0.161143 0.671370 0.506305
  Ga 0.162316 0.828768 0.332916
  As 0.082788 0.748833 0.420028
  Sb 0.081838 0.912924 0.586343
  As 0.249517 0.751528 0.582853
  Sb 0.252248 0.915277 0.414217
  Ga -0.006986 0.663591 0.663060
  Ga -0.004599 0.836451 0.834674
  Ga 0.158597 0.665081 0.837995
  Ga 0.176520 0.832862 0.669258
  Sb 0.079812 0.750990 0.747977
  As 0.082139 0.915798 0.914461
  Sb 0.249040 0.752701 0.918037
  As 0.253208 0.916769 0.750095
  Ga 0.335964 -0.001911 0.005529
  Ga 0.329593 0.160808 0.161644
  Ga 0.491016 0.002778 0.167567
  Ga 0.497663 0.171533 0.006513
  As 0.415179 0.083996 0.083113
  Sb 0.418976 0.246223 0.247430
  Sb 0.583972 0.083350 0.251564
  As 0.581634 0.254476 0.084358
  Ga 0.340126 0.003642 0.330991
  Ga 0.343221 0.163843 0.499821
  Ga 0.501936 -0.001016 0.499756
  Ga 0.502241 0.164788 0.342472
  As 0.420807 0.080963 0.418243
  As 0.421487 0.244021 0.581944
  As 0.584437 0.082528 0.579916
  As 0.585998 0.246957 0.417326
  Ga 0.337903 -0.003041 0.671848
  Ga 0.343396 0.166151 0.834669
  Ga 0.491481 0.002352 0.834286
  Ga 0.498526 0.158783 0.662335
  As 0.417253 0.082819 0.748895
  As 0.419565 0.249378 0.920838
  Sb 0.581106 0.085570 0.917422
  Sb 0.582799 0.246350 0.748802
  Ga 0.337363 0.327690 0.003396
  Ga 0.341203 0.495128 0.160153
  Ga 0.503554 0.336799 0.163935
  Ga 0.495894 0.495445 -0.003051
  As 0.419411 0.412307 0.080198
  Sb 0.420824 0.584221 0.250190
  As 0.585588 0.412853 0.249525
  Sb 0.584627 0.578672 0.084517
  Ga 0.336022 0.333830 0.331641
  Ga 0.338528 0.505334 0.503667
  Ga 0.504150 0.323123 0.500335
  Ga 0.512552 0.499156 0.333266
  Sb 0.422773 0.416273 0.418340
  As 0.417963 0.585729 0.583002
  Sb 0.585509 0.417466 0.580406
  As 0.586527 0.584725 0.415685
  Ga 0.338209 0.326400 0.661085
  Ga 0.334872 0.501595 0.835229
  Ga 0.503878 0.331485 0.843362
  Ga 0.497182 0.502334 0.663304
  Sb 0.418933 0.413285 0.751285
  As 0.417218 0.579910 0.916137
  As 0.583701 0.416272 0.921266
  Sb 0.585528 0.582336 0.750507
  Ga 0.339000 0.663231 -0.003512
  Ga 0.328393 0.839129 0.172234
  Ga 0.508556 0.674334 0.171931
  Ga 0.495359 0.839147 -0.005010
  Sb 0.416243 0.753574 0.086124
  As 0.416236 0.919191 0.250548
  As 0.584853 0.754846 0.256566
  Sb 0.580667 0.917145 0.086790
  Ga 0.328110 0.672932 0.328748
  Ga 0.334514 0.834863 0.507644
  Ga 0.500798 0.658602 0.496479
  Ga 0.503930 0.841379 0.331573
  Sb 0.418177 0.752506 0.416165
  As 0.417285 0.919532 0.583583
  Sb 0.585916 0.748949 0.578697
  As 0.585016 0.918782 0.417609
  Ga 0.331419 0.668034 0.657843
  Ga 0.332478 0.841190 0.833792
  Ga 0.495162 0.662546 0.834951
  Ga 0.498232 0.836872 0.659820
  Sb 0.414245 0.752044 0.747898
  As 0.413122 0.920332 0.916721
  Sb 0.582896 0.748205 0.916648
  Sb 0.582016 0.921600 0.746868
  Ga 0.666934 0.000059 0.001075
  Ga 0.663518 0.176358 0.166162
  Ga 0.825360 -0.007032 0.172237
  Ga 0.841532 0.164198 -0.000867
  Sb 0.750004 0.086249 0.085824
  As 0.746068 0.250952 0.248694
  Sb 0.912194 0.082500 0.250962
  As 0.913653 0.251478 0.079767
  Ga 0.669083 -0.002053 0.338938
  Ga 0.665945 0.166080 0.499172
  Ga 0.829270 0.004894 0.501896
  Ga 0.821331 0.167102 0.334038
  As 0.746633 0.083822 0.419036
  As 0.749284 0.246336 0.582711
  As 0.910558 0.081281 0.585153
  Sb 0.911730 0.250838 0.418647
  Ga 0.670720 0.003850 0.660239
  Ga 0.673182 0.160636 0.827123
  Ga 0.837120 0.005101 0.826053
  Ga 0.829261 0.164454 0.663139
  As 0.752620 0.081784 0.744329
  Sb 0.750582 0.249989 0.918115
  As 0.918027 0.083769 0.913148
  Sb 0.916322 0.250403 0.750366
  Ga 0.662677 0.335621 0.004267
  Ga 0.670014 0.489218 0.168799
  Ga 0.827918 0.328613 0.162467
  Ga 0.832957 0.497142 0.000031
  As 0.750270 0.413527 0.082383
  Sb 0.749167 0.584617 0.252907
  Sb 0.914360 0.417028 0.248309
  As 0.914982 0.581544 0.076742
  Ga 0.663061 0.328750 0.330469
  Ga 0.668961 0.509207 0.498502
  Ga 0.832095 0.334492 0.511175
  Ga 0.838133 0.505108 0.340685
  Sb 0.749244 0.415700 0.418425
  As 0.753951 0.585230 0.580022
  As 0.916021 0.421610 0.584779
  As 0.916544 0.585688 0.423859
  Ga 0.671118 0.328895 0.663117
  Ga 0.666839 0.497886 0.841662
  Ga 0.837580 0.339366 0.838050
  Ga 0.836643 0.506344 0.662557
  Sb 0.751985 0.419123 0.748938
  As 0.754557 0.579097 0.916632
  As 0.917137 0.419597 0.917714
  As 0.917239 0.582107 0.749175
  Ga 0.672805 0.659423 -0.003556
  Ga 0.665647 0.833404 0.176332
  Ga 0.839340 0.661188 0.162003
  Ga 0.839453 0.826898 -0.005521
  Sb 0.750796 0.749610 0.084278
  As 0.745629 0.914626 0.255803
  Sb 0.916965 0.749534 0.253520
  Sb 0.917884 0.917400 0.081824
  Ga 0.663049 0.673459 0.339539
  Ga 0.670926 0.838453 0.496499
  Ga 0.831867 0.669417 0.500560
  Ga 0.823301 0.830855 0.334352
  As 0.748169 0.750834 0.419151
  As 0.751313 0.919400 0.580887
  As 0.914018 0.748496 0.582326
  Sb 0.913830 0.914451 0.417549
  Ga 0.674020 0.663069 0.661927
  Ga 0.666869 0.833283 0.829417
  Ga 0.839045 0.660283 0.835034
  Ga 0.837552 0.838439 0.661130
  Sb 0.756662 0.748944 0.747822
  Sb 0.754152 0.918099 0.913613
  As 0.918292 0.746242 0.913214
  As 0.914484 0.917387 0.749565
K_POINTS automatic
  2 2 2 0 0 0

HUBBARD (atomic)
U In-5p -1.0150000000000001
U Ga-4p -2.8
U As-4p 5.84
U Sb-5p 4.89
