&CONTROL
  calculation = 'scf',
  etot_conv_thr = 0.0001,
  forc_conv_thr = 0.00045,
  outdir = './tmp_In0.0Ga1.0As0.5Sb0.5_cube_3x3x3.2',
  prefix = 'In0.0Ga1.0As0.5Sb0.5_cube_3x3x3.2',
  pseudo_dir = '/work/i254/i254/gentles/data/pseudos/',
  restart_mode = 'from_scratch',
  verbosity = 'low',
/
&SYSTEM
  celldm(1) = 33.445603487101465,
  ecutwfc = 120,
  ibrav = 1,
  nat = 216,
  nbnd = 2160,
  ntyp = 4,
/
&ELECTRONS
  conv_thr = 1d-05,
  mixing_beta = 0.65,
/
&IONS
/
&CELL
  cell_dofree = 'all',
/
ATOMIC_SPECIES
  As  74.9216 As.pbe.NC-SR.standard.v0.5.UPF
  Ga  69.7230 Ga.pbe.NC-SR.standard.v0.5.UPF
  In  114.8180 In.pbe.NC-SR.standard.v0.5.UPF
  Sb  121.7600 Sb.pbe.NC-SR.standard.v0.5.UPF
ATOMIC_POSITIONS crystal
  Ga 0.002075 0.010438 0.000249
  Ga 0.010507 0.166198 0.166308
  Ga 0.166353 -0.003465 0.157727
  Ga 0.171917 0.163765 0.004250
  As 0.087350 0.084188 0.082793
  As 0.084436 0.251661 0.247319
  Sb 0.246631 0.082481 0.247611
  As 0.249188 0.252708 0.084150
  Ga 0.000690 0.001564 0.342188
  Ga 0.004296 0.162415 0.503763
  Ga 0.162737 -0.001990 0.495428
  Ga 0.157363 0.166132 0.332884
  As 0.082341 0.083406 0.418756
  As 0.080728 0.249832 0.583011
  Sb 0.247540 0.084696 0.583464
  Sb 0.247588 0.249925 0.416103
  Ga -0.001339 -0.004632 0.660318
  Ga -0.002411 0.163327 0.836579
  Ga 0.173954 -0.000556 0.833391
  Ga 0.164078 0.176871 0.667285
  Sb 0.083949 0.082000 0.748129
  Sb 0.087687 0.250413 0.919285
  As 0.250111 0.081687 0.920316
  As 0.250021 0.250001 0.750110
  Ga 0.008009 0.340023 0.008542
  Ga 0.001640 0.501556 0.169010
  Ga 0.167082 0.333997 0.167796
  Ga 0.166209 0.501651 0.003849
  As 0.086955 0.420890 0.089174
  As 0.085739 0.581326 0.251080
  As 0.247030 0.419347 0.245895
  As 0.249235 0.582241 0.083688
  Ga -0.000797 0.333576 0.322678
  Ga -0.009489 0.497936 0.495651
  Ga 0.159960 0.330218 0.502612
  Ga 0.170538 0.503507 0.329645
  Sb 0.081945 0.416878 0.411995
  Sb 0.083753 0.582330 0.577187
  Sb 0.252143 0.415168 0.582003
  As 0.248415 0.586720 0.413158
  Ga -0.001255 0.333728 0.657641
  Ga 0.008039 0.503702 0.838361
  Ga 0.177019 0.334604 0.834061
  Ga 0.168551 0.500402 0.667444
  Sb 0.084722 0.414185 0.749676
  As 0.085166 0.583005 0.922382
  As 0.248728 0.420130 0.921460
  Sb 0.251981 0.586002 0.754141
  Ga -0.001749 0.662356 -0.001211
  Ga 0.002017 0.830844 0.168197
  Ga 0.169934 0.660199 0.170618
  Ga 0.175272 0.832473 0.000489
  Sb 0.087447 0.745968 0.083047
  Sb 0.085244 0.917142 0.252773
  As 0.248648 0.747868 0.247782
  As 0.250979 0.915109 0.082193
  Ga 0.006586 0.660482 0.336287
  Ga 0.006733 0.835814 0.495022
  Ga 0.169278 0.671104 0.494058
  Ga 0.170172 0.827277 0.333406
  As 0.085712 0.749258 0.413981
  As 0.084465 0.916446 0.579282
  As 0.248645 0.750845 0.580298
  As 0.244387 0.913023 0.417327
  Ga 0.003202 0.668355 0.665137
  Ga -0.006674 0.834848 0.835803
  Ga 0.166917 0.667882 0.845709
  Ga 0.168930 0.837195 0.661776
  Sb 0.085576 0.753040 0.753410
  Sb 0.084768 0.918241 0.918215
  As 0.251734 0.748021 0.920906
  As 0.247168 0.914533 0.749862
  Ga 0.330443 0.002189 0.005444
  Ga 0.332283 0.169444 0.161195
  Ga 0.498479 0.009516 0.169577
  Ga 0.492639 0.162203 0.004731
  As 0.412723 0.083472 0.085723
  Sb 0.417105 0.253526 0.248199
  As 0.584628 0.087344 0.252354
  Sb 0.581393 0.250784 0.084977
  Ga 0.326276 -0.006101 0.338562
  Ga 0.339398 0.171246 0.503924
  Ga 0.503614 0.005319 0.504901
  Ga 0.508491 0.170670 0.333306
  Sb 0.418322 0.084620 0.415173
  As 0.421245 0.250158 0.584512
  As 0.585065 0.089017 0.581834
  As 0.586720 0.249962 0.418750
  Ga 0.327941 -0.004556 0.672008
  Ga 0.323261 0.166460 0.835552
  Ga 0.496918 -0.000780 0.832417
  Ga 0.504119 0.169991 0.662678
  Sb 0.413862 0.086973 0.749033
  Sb 0.412115 0.251848 0.917494
  Sb 0.583246 0.085297 0.915724
  As 0.585011 0.250101 0.744936
  Ga 0.327815 0.339360 0.004103
  Ga 0.327898 0.496976 0.161717
  Ga 0.494679 0.343583 0.161279
  Ga 0.494868 0.504461 0.006546
  As 0.411379 0.420869 0.081916
  Sb 0.414281 0.582604 0.247478
  Sb 0.585081 0.418872 0.251984
  As 0.579699 0.586411 0.084954
  Ga 0.326236 0.339856 0.327487
  Ga 0.331894 0.509122 0.496506
  Ga 0.502651 0.328918 0.501780
  Ga 0.503243 0.505409 0.338085
  Sb 0.415997 0.417209 0.417130
  As 0.416460 0.584239 0.578295
  As 0.582302 0.414170 0.577950
  As 0.585549 0.583308 0.416875
  Ga 0.335191 0.324666 0.667008
  Ga 0.334643 0.500621 0.844676
  Ga 0.504928 0.328623 0.828065
  Ga 0.497167 0.498340 0.655382
  Sb 0.416161 0.416363 0.749942
  As 0.414609 0.583585 0.924509
  Sb 0.581991 0.416795 0.919335
  Sb 0.578583 0.584235 0.747587
  Ga 0.331868 0.665048 0.003431
  Ga 0.328544 0.828439 0.162190
  Ga 0.499397 0.669689 0.163056
  Ga 0.494243 0.825052 0.002178
  As 0.412456 0.746758 0.083661
  Sb 0.414442 0.914785 0.248523
  As 0.584219 0.743656 0.247021
  Sb 0.580545 0.913583 0.087162
  Ga 0.326188 0.666859 0.330383
  Ga 0.325718 0.833960 0.498330
  Ga 0.503819 0.661884 0.500655
  Ga 0.505286 0.827442 0.327020
  Sb 0.416175 0.748016 0.415548
  Sb 0.414940 0.915717 0.583464
  As 0.582357 0.745693 0.580788
  Sb 0.584082 0.916709 0.416854
  Ga 0.333542 0.666841 0.657486
  Ga 0.322444 0.830639 0.832020
  Ga 0.496183 0.663873 0.844087
  Ga 0.502593 0.825598 0.661488
  Sb 0.414757 0.747373 0.751106
  Sb 0.410858 0.914207 0.917802
  As 0.578446 0.747022 0.922263
  Sb 0.582294 0.914856 0.747141
  Ga 0.667590 -0.001214 0.001720
  Ga 0.666436 0.171377 0.177150
  Ga 0.835872 -0.000037 0.165622
  Ga 0.833593 0.167977 -0.007893
  Sb 0.749863 0.088469 0.085183
  As 0.749388 0.251405 0.256468
  Sb 0.919132 0.085578 0.252596
  Sb 0.918230 0.250458 0.085391
  Ga 0.666745 0.008346 0.334733
  Ga 0.668254 0.167556 0.498339
  Ga 0.837949 0.004615 0.493657
  Ga 0.826346 0.167975 0.335690
  As 0.749711 0.085558 0.416965
  As 0.748174 0.250908 0.577956
  As 0.918331 0.081448 0.579288
  Sb 0.917439 0.251074 0.417900
  Ga 0.662923 0.006756 0.662597
  Ga 0.667562 0.175719 0.830724
  Ga 0.842570 0.000040 0.832383
  Ga 0.833524 0.166881 0.653520
  Sb 0.752963 0.086260 0.748352
  As 0.750805 0.249682 0.914861
  As 0.916954 0.084281 0.916878
  Sb 0.915896 0.248424 0.745857
  Ga 0.672285 0.328754 -0.002508
  Ga 0.664768 0.508574 0.166431
  Ga 0.832873 0.333060 0.177626
  Ga 0.839842 0.503840 0.008560
  Sb 0.750656 0.416862 0.087459
  As 0.749841 0.581226 0.249187
  As 0.916630 0.419314 0.249283
  As 0.919931 0.584530 0.087673
  Ga 0.670733 0.330856 0.338776
  Ga 0.663180 0.494012 0.492995
  Ga 0.828746 0.337980 0.501203
  Ga 0.833021 0.499249 0.331069
  As 0.750816 0.417215 0.414699
  Sb 0.750163 0.578306 0.579265
  As 0.915317 0.415212 0.579656
  As 0.917135 0.580006 0.411412
  Ga 0.662430 0.329412 0.659099
  Ga 0.666632 0.501233 0.832432
  Ga 0.831257 0.329635 0.836638
  Ga 0.838656 0.493923 0.663645
  Sb 0.748452 0.412501 0.747345
  Sb 0.750059 0.585598 0.922000
  Sb 0.919729 0.417882 0.919545
  Sb 0.919573 0.582897 0.750867
  Ga 0.660188 0.669017 0.005580
  Ga 0.668666 0.823440 0.169379
  Ga 0.829780 0.661037 0.166031
  Ga 0.833565 0.820834 0.002293
  As 0.748843 0.743997 0.085602
  Sb 0.750275 0.917258 0.252137
  Sb 0.916761 0.745761 0.253121
  Sb 0.919163 0.914912 0.080004
  Ga 0.664211 0.660711 0.327902
  Ga 0.663934 0.826984 0.503360
  Ga 0.838105 0.660482 0.492513
  Ga 0.840147 0.839370 0.339955
  Sb 0.749679 0.747522 0.413544
  Sb 0.750633 0.920658 0.580423
  Sb 0.917575 0.752916 0.580000
  As 0.921470 0.919088 0.419686
  Ga 0.664766 0.669063 0.661348
  Ga 0.659158 0.828060 0.839659
  Ga 0.837214 0.669957 0.837713
  Ga 0.836656 0.841503 0.670758
  Sb 0.749579 0.751637 0.750812
  Sb 0.753499 0.912526 0.917100
  As 0.918322 0.747395 0.918771
  As 0.920332 0.918759 0.749848
K_POINTS automatic
  2 2 2 0 0 0

HUBBARD (atomic)
U In-5p -1.0150000000000001
U Ga-4p -2.8
U As-4p 5.84
U Sb-5p 4.89
