&CONTROL
  calculation = 'scf',
  etot_conv_thr = 0.0001,
  forc_conv_thr = 0.00045,
  outdir = './tmp_In0.0Ga1.0As0.5Sb0.5_cube_3x3x3.3',
  prefix = 'In0.0Ga1.0As0.5Sb0.5_cube_3x3x3.3',
  pseudo_dir = '/work/i254/i254/gentles/data/pseudos/',
  restart_mode = 'from_scratch',
  verbosity = 'low',
/
&SYSTEM
  celldm(1) = 33.43084452253146,
  ecutwfc = 120,
  ibrav = 1,
  nat = 216,
  nbnd = 2160,
  ntyp = 4,
/
&ELECTRONS
  conv_thr = 1d-05,
  mixing_beta = 0.65,
/
&IONS
/
&CELL
  cell_dofree = 'all',
/
ATOMIC_SPECIES
  As  74.9216 As.pbe.NC-SR.standard.v0.5.UPF
  Ga  69.7230 Ga.pbe.NC-SR.standard.v0.5.UPF
  In  114.8180 In.pbe.NC-SR.standard.v0.5.UPF
  Sb  121.7600 Sb.pbe.NC-SR.standard.v0.5.UPF
ATOMIC_POSITIONS crystal
  Ga -0.002839 0.009572 0.000243
  Ga 0.002804 0.162261 0.174878
  Ga 0.165442 -0.001272 0.159607
  Ga 0.160359 0.163584 0.003528
  As 0.080411 0.083938 0.086479
  As 0.083765 0.248477 0.254291
  Sb 0.247914 0.081663 0.254638
  Sb 0.247200 0.251871 0.084904
  Ga 0.001445 0.008774 0.335264
  Ga 0.004690 0.164172 0.505132
  Ga 0.163631 -0.003595 0.493791
  Ga 0.164303 0.170847 0.341022
  As 0.083905 0.085338 0.419150
  As 0.082950 0.252322 0.582469
  Sb 0.246547 0.083191 0.580712
  As 0.249012 0.250348 0.422268
  Ga 0.001882 0.003092 0.658305
  Ga -0.000659 0.158287 0.828637
  Ga 0.164450 0.000659 0.821348
  Ga 0.157421 0.168166 0.664047
  As 0.080774 0.081918 0.743665
  Sb 0.080527 0.249725 0.913408
  Sb 0.246157 0.081500 0.915035
  Sb 0.249813 0.252448 0.743327
  Ga 0.003227 0.338059 0.004954
  Ga -0.002640 0.501929 0.158563
  Ga 0.157865 0.333917 0.169421
  Ga 0.160072 0.499057 0.000791
  As 0.082081 0.418507 0.085027
  Sb 0.079538 0.584301 0.251819
  Sb 0.250996 0.416061 0.251869
  Sb 0.249222 0.583972 0.082962
  Ga 0.008424 0.332603 0.336344
  Ga 0.000333 0.497439 0.500431
  Ga 0.167813 0.332426 0.503489
  Ga 0.162389 0.496143 0.338352
  As 0.084823 0.414251 0.421507
  As 0.081907 0.578780 0.580957
  As 0.250006 0.415381 0.583339
  Sb 0.251094 0.582984 0.418811
  Ga 0.004542 0.338356 0.661123
  Ga 0.009816 0.501380 0.830378
  Ga 0.162568 0.337366 0.825520
  Ga 0.166732 0.499656 0.663461
  As 0.084840 0.419806 0.744011
  As 0.085536 0.581804 0.917088
  Sb 0.249032 0.418719 0.913818
  As 0.245987 0.579310 0.748491
  Ga 0.005386 0.662274 0.000053
  Ga 0.006296 0.827470 0.163856
  Ga 0.164061 0.671134 0.166486
  Ga 0.169311 0.828324 0.003151
  As 0.085253 0.747147 0.080854
  Sb 0.085033 0.916559 0.252295
  Sb 0.251605 0.751699 0.254820
  As 0.247253 0.913979 0.084716
  Ga -0.001225 0.668015 0.344129
  Ga 0.002563 0.831659 0.505237
  Ga 0.157734 0.664987 0.501120
  Ga 0.166212 0.832419 0.344762
  As 0.081015 0.750446 0.422558
  As 0.083048 0.919384 0.579775
  Sb 0.247663 0.751093 0.581056
  As 0.249822 0.916272 0.417558
  Ga 0.000111 0.665127 0.655968
  Ga -0.001724 0.832518 0.834245
  Ga 0.169330 0.660514 0.836268
  Ga 0.165838 0.843374 0.663544
  Sb 0.085269 0.748507 0.746848
  Sb 0.084519 0.919164 0.918082
  As 0.246430 0.748982 0.914754
  As 0.247259 0.917073 0.747721
  Ga 0.326018 -0.006174 0.004074
  Ga 0.332887 0.168729 0.172057
  Ga 0.495470 -0.004855 0.177267
  Ga 0.499335 0.166529 -0.000178
  Sb 0.414303 0.080313 0.086245
  Sb 0.419175 0.252568 0.256639
  Sb 0.585008 0.081154 0.257500
  Sb 0.583393 0.255323 0.081784
  Ga 0.336298 -0.002648 0.340844
  Ga 0.336787 0.169774 0.498721
  Ga 0.505882 0.006150 0.497236
  Ga 0.501381 0.166810 0.345148
  As 0.417574 0.084194 0.420189
  As 0.418703 0.252689 0.578822
  As 0.586367 0.089574 0.578859
  As 0.582258 0.250657 0.422454
  Ga 0.329051 -0.004373 0.667798
  Ga 0.332412 0.170200 0.833372
  Ga 0.498804 -0.000660 0.831905
  Ga 0.503665 0.172454 0.658097
  Sb 0.417318 0.086311 0.744985
  Sb 0.419243 0.256730 0.915309
  Sb 0.587034 0.086117 0.912734
  As 0.583584 0.251416 0.743739
  Ga 0.336304 0.340630 0.005408
  Ga 0.341186 0.503191 0.167690
  Ga 0.499511 0.341938 0.169063
  Ga 0.500458 0.491479 -0.001233
  As 0.418699 0.419640 0.086214
  As 0.419967 0.581570 0.252888
  As 0.578577 0.415783 0.255616
  Sb 0.583386 0.581414 0.086048
  Ga 0.331217 0.332159 0.344761
  Ga 0.333715 0.490980 0.501121
  Ga 0.500027 0.334044 0.500222
  Ga 0.493964 0.495335 0.333689
  As 0.416460 0.413596 0.419327
  Sb 0.417523 0.580861 0.584575
  As 0.581363 0.412662 0.583993
  Sb 0.580005 0.584083 0.416795
  Ga 0.339074 0.336642 0.658920
  Ga 0.333493 0.497569 0.820451
  Ga 0.504982 0.338065 0.824211
  Ga 0.506452 0.495761 0.668693
  As 0.419622 0.416145 0.743731
  Sb 0.416364 0.579474 0.912546
  As 0.583580 0.417407 0.910831
  As 0.585976 0.581535 0.747647
  Ga 0.329773 0.670516 -0.005911
  Ga 0.331715 0.843866 0.171634
  Ga 0.501662 0.666912 0.177430
  Ga 0.501392 0.829204 -0.000576
  Sb 0.414160 0.750370 0.088656
  As 0.415337 0.916435 0.257788
  As 0.584129 0.752664 0.254785
  Sb 0.583639 0.913706 0.088559
  Ga 0.343173 0.664847 0.334226
  Ga 0.333425 0.831877 0.489369
  Ga 0.497883 0.674610 0.500323
  Ga 0.501246 0.835057 0.334568
  As 0.419725 0.751988 0.413535
  Sb 0.417611 0.917043 0.577209
  As 0.584813 0.748082 0.581093
  As 0.582943 0.916003 0.417651
  Ga 0.325683 0.660384 0.669512
  Ga 0.322254 0.831958 0.831024
  Ga 0.505054 0.660479 0.827479
  Ga 0.503094 0.828607 0.658282
  Sb 0.414568 0.748224 0.748269
  Sb 0.412286 0.913510 0.916204
  Sb 0.589309 0.747062 0.913241
  Sb 0.584615 0.917246 0.744588
  Ga 0.667217 -0.001091 0.001207
  Ga 0.665898 0.166236 0.166050
  Ga 0.835373 -0.001801 0.179852
  Ga 0.834389 0.167687 -0.009984
  Sb 0.755813 0.082230 0.084320
  Sb 0.747177 0.248899 0.255118
  As 0.917172 0.083486 0.254975
  Sb 0.918961 0.247019 0.084827
  Ga 0.671311 -0.006320 0.341074
  Ga 0.668830 0.168869 0.497720
  Ga 0.835310 0.008057 0.501444
  Ga 0.832588 0.158768 0.336822
  As 0.749802 0.082056 0.419355
  As 0.748969 0.247673 0.581808
  As 0.918074 0.085830 0.582532
  Sb 0.918650 0.247449 0.419430
  Ga 0.666485 0.011192 0.664483
  Ga 0.670442 0.172995 0.823645
  Ga 0.833142 0.009001 0.829322
  Ga 0.830848 0.164877 0.659926
  As 0.750803 0.088772 0.745718
  As 0.749569 0.248982 0.911601
  As 0.916178 0.085187 0.912256
  Sb 0.917785 0.249744 0.744764
  Ga 0.667767 0.334262 -0.012682
  Ga 0.661714 0.493356 0.175861
  Ga 0.832349 0.332745 0.168733
  Ga 0.834252 0.510627 -0.003077
  Sb 0.749343 0.418800 0.080270
  Sb 0.751413 0.584701 0.251149
  Sb 0.919680 0.418398 0.252593
  As 0.919035 0.585414 0.078506
  Ga 0.656244 0.332323 0.337238
  Ga 0.660146 0.496512 0.505953
  Ga 0.833686 0.330876 0.507962
  Ga 0.839038 0.506306 0.341793
  Sb 0.748806 0.415946 0.420198
  Sb 0.751461 0.584296 0.582843
  As 0.919712 0.414775 0.580787
  As 0.919706 0.585026 0.423309
  Ga 0.663220 0.328215 0.660055
  Ga 0.663635 0.505247 0.836064
  Ga 0.831122 0.329852 0.834872
  Ga 0.839397 0.493594 0.661887
  Sb 0.746790 0.415526 0.748179
  As 0.748074 0.585090 0.916203
  Sb 0.918476 0.419811 0.915521
  Sb 0.918186 0.583290 0.747928
  Ga 0.674692 0.666270 0.003035
  Ga 0.670781 0.828361 0.173376
  Ga 0.836364 0.664677 0.158678
  Ga 0.829545 0.829861 0.006665
  As 0.750818 0.748468 0.087302
  As 0.748953 0.915398 0.254557
  Sb 0.915338 0.748743 0.251570
  Sb 0.917786 0.917550 0.086808
  Ga 0.667299 0.674440 0.335483
  Ga 0.662361 0.830825 0.497407
  Ga 0.835966 0.671450 0.496016
  Ga 0.826214 0.834538 0.335156
  As 0.748991 0.752333 0.417789
  Sb 0.749084 0.917466 0.582603
  As 0.917665 0.748930 0.579810
  Sb 0.917996 0.918356 0.418119
  Ga 0.663485 0.667838 0.667673
  Ga 0.673998 0.830606 0.824369
  Ga 0.823948 0.664259 0.830643
  Ga 0.833288 0.823677 0.663693
  As 0.749592 0.746131 0.745295
  Sb 0.752918 0.916678 0.913971
  Sb 0.913331 0.745520 0.918202
  Sb 0.916035 0.917633 0.745097
K_POINTS automatic
  2 2 2 0 0 0

HUBBARD (atomic)
U In-5p -1.0150000000000001
U Ga-4p -2.8
U As-4p 5.84
U Sb-5p 4.89
