&CONTROL
  calculation = 'scf',
  etot_conv_thr = 0.0001,
  forc_conv_thr = 0.00045,
  outdir = './tmp_In1.0Ga0.0As0.75Sb0.25_cube_3x3x3.5',
  prefix = 'In1.0Ga0.0As0.75Sb0.25_cube_3x3x3.5',
  pseudo_dir = '/work/i254/i254/gentles/data/pseudos/',
  restart_mode = 'from_scratch',
  verbosity = 'low',
/
&SYSTEM
  celldm(1) = 35.11581626713081,
  ecutwfc = 120,
  ibrav = 1,
  nat = 216,
  nbnd = 2160,
  ntyp = 4,
/
&ELECTRONS
  conv_thr = 1d-05,
  mixing_beta = 0.65,
/
&IONS
/
&CELL
  cell_dofree = 'all',
/
ATOMIC_SPECIES
  As  74.9216 As.pbe.NC-SR.standard.v0.5.UPF
  Ga  69.7230 Ga.pbe.NC-SR.standard.v0.5.UPF
  In  114.8180 In.pbe.NC-SR.standard.v0.5.UPF
  Sb  121.7600 Sb.pbe.NC-SR.standard.v0.5.UPF
ATOMIC_POSITIONS crystal
  In -0.001125 0.007240 -0.002597
  In 0.004840 0.162699 0.165494
  In 0.163936 -0.002999 0.162927
  In 0.164450 0.170218 0.002041
  As 0.084815 0.082970 0.081100
  Sb 0.086128 0.253539 0.251132
  Sb 0.252475 0.082178 0.250304
  As 0.250779 0.249287 0.083460
  In 0.000518 -0.008962 0.333697
  In -0.000089 0.165795 0.510180
  In 0.173816 -0.004408 0.505242
  In 0.172433 0.171214 0.340178
  Sb 0.084687 0.080315 0.420829
  As 0.085627 0.250455 0.585337
  As 0.253008 0.083334 0.583762
  As 0.253911 0.253172 0.420300
  In 0.000261 0.000998 0.667417
  In 0.000051 0.165774 0.831876
  In 0.168229 -0.000122 0.823469
  In 0.167621 0.164906 0.665190
  As 0.082985 0.084605 0.747344
  As 0.083395 0.248921 0.913628
  Sb 0.252282 0.084102 0.915455
  As 0.250212 0.246936 0.746547
  In 0.005553 0.336321 -0.005345
  In -0.003478 0.497957 0.162404
  In 0.171920 0.337730 0.163421
  In 0.167187 0.502600 0.007690
  As 0.083747 0.416910 0.083240
  Sb 0.083902 0.582634 0.250368
  As 0.250399 0.415056 0.253563
  As 0.251488 0.585279 0.086359
  In -0.000728 0.342851 0.333537
  In 0.000829 0.500543 0.500533
  In 0.166189 0.333164 0.500480
  In 0.170640 0.497132 0.339031
  As 0.084321 0.418019 0.419514
  As 0.086466 0.580169 0.583339
  As 0.249873 0.416319 0.581028
  As 0.251896 0.582572 0.419519
  In -0.000226 0.333145 0.664332
  In 0.001030 0.490640 0.832426
  In 0.164770 0.327800 0.826925
  In 0.168127 0.497183 0.665787
  As 0.084123 0.413010 0.746671
  Sb 0.082081 0.584858 0.916434
  Sb 0.248973 0.416187 0.915462
  As 0.249540 0.585466 0.744336
  In -0.004152 0.671481 0.004142
  In 0.002171 0.828538 0.172337
  In 0.171097 0.671353 0.165913
  In 0.167132 0.833623 0.006669
  As 0.083397 0.750069 0.086297
  As 0.085450 0.914237 0.249394
  As 0.253112 0.752537 0.250201
  As 0.252098 0.915820 0.085931
  In -0.008478 0.666258 0.334844
  In 0.001371 0.842492 0.500385
  In 0.171064 0.662597 0.504400
  In 0.173346 0.837519 0.330493
  Sb 0.085538 0.751116 0.416686
  As 0.085344 0.918919 0.586286
  As 0.251351 0.749804 0.584505
  As 0.254454 0.915049 0.419215
  In 0.009549 0.667374 0.664211
  In -0.004828 0.828382 0.828729
  In 0.167030 0.668259 0.824883
  In 0.167968 0.833575 0.665406
  As 0.084814 0.752636 0.747017
  Sb 0.082799 0.915960 0.913678
  Sb 0.252982 0.750444 0.915844
  As 0.252175 0.917051 0.744740
  In 0.337474 -0.003512 0.003454
  In 0.338816 0.168892 0.163294
  In 0.500533 -0.000737 0.168617
  In 0.501100 0.164103 -0.001226
  As 0.420145 0.082097 0.083573
  As 0.418457 0.248793 0.252264
  As 0.581996 0.081844 0.251057
  As 0.580551 0.248372 0.083873
  In 0.338855 -0.003355 0.338372
  In 0.333956 0.165301 0.498995
  In 0.500964 -0.000262 0.501311
  In 0.500117 0.164854 0.334525
  As 0.418858 0.082562 0.418692
  As 0.414445 0.247772 0.581090
  As 0.582924 0.082432 0.582721
  As 0.581054 0.247956 0.418971
  In 0.334992 -0.000219 0.664802
  In 0.338697 0.169348 0.827143
  In 0.498773 0.001131 0.832348
  In 0.494290 0.161342 0.660763
  As 0.416382 0.081164 0.747643
  As 0.419457 0.246004 0.915689
  As 0.582247 0.080263 0.916112
  Sb 0.580358 0.246145 0.747856
  In 0.334273 0.323709 -0.002580
  In 0.326783 0.499404 0.169994
  In 0.504467 0.330142 0.173178
  In 0.498663 0.500094 -0.007386
  Sb 0.416319 0.413982 0.084342
  Sb 0.415091 0.584718 0.254079
  As 0.584870 0.416104 0.254360
  Sb 0.584274 0.583638 0.082566
  In 0.335764 0.332931 0.333863
  In 0.334960 0.499429 0.499852
  In 0.497593 0.330457 0.499792
  In 0.503085 0.497139 0.338070
  As 0.417341 0.415258 0.417870
  As 0.416725 0.584829 0.580417
  As 0.582398 0.414984 0.577499
  As 0.582996 0.583492 0.418406
  In 0.328613 0.328758 0.661298
  In 0.331777 0.509694 0.831461
  In 0.501350 0.333428 0.840070
  In 0.500085 0.498777 0.657610
  Sb 0.414769 0.415989 0.748503
  As 0.417076 0.586854 0.915361
  As 0.584650 0.416167 0.919210
  Sb 0.581962 0.584978 0.749394
  In 0.337584 0.663571 0.004082
  In 0.335316 0.834722 0.168834
  In 0.495514 0.672190 0.163570
  In 0.499861 0.834805 0.000718
  As 0.414995 0.754090 0.082279
  As 0.418110 0.916666 0.251453
  Sb 0.584382 0.752139 0.251900
  As 0.582338 0.917544 0.083322
  In 0.329534 0.671844 0.339761
  In 0.334524 0.832785 0.503129
  In 0.499361 0.667901 0.498385
  In 0.497057 0.837086 0.338629
  As 0.415707 0.752170 0.419564
  As 0.417784 0.917004 0.583179
  As 0.581999 0.751864 0.579809
  As 0.582385 0.917751 0.418640
  In 0.335512 0.667943 0.665321
  In 0.337372 0.839698 0.829207
  In 0.496603 0.674398 0.835540
  In 0.500899 0.834206 0.664967
  As 0.416923 0.753359 0.747740
  As 0.419177 0.917739 0.916332
  As 0.582118 0.753685 0.918161
  As 0.580493 0.919483 0.748163
  In 0.663961 -0.001804 -0.001275
  In 0.660980 0.161998 0.162677
  In 0.822741 -0.002201 0.167274
  In 0.831219 0.158470 0.000948
  As 0.744597 0.079656 0.082257
  Sb 0.745594 0.249583 0.250519
  Sb 0.914827 0.079825 0.250567
  Sb 0.918521 0.250126 0.081423
  In 0.663771 -0.000928 0.334434
  In 0.665060 0.165744 0.500721
  In 0.831784 0.001018 0.499980
  In 0.828563 0.162750 0.339464
  As 0.745579 0.080708 0.419147
  As 0.749042 0.248193 0.582453
  As 0.913936 0.081717 0.586311
  Sb 0.916455 0.252281 0.420409
  In 0.665411 0.000038 0.665306
  In 0.666302 0.156913 0.831341
  In 0.833338 -0.001533 0.832640
  In 0.831551 0.166296 0.667427
  As 0.750988 0.079377 0.748150
  Sb 0.747723 0.248913 0.917121
  As 0.914801 0.083869 0.913258
  As 0.919261 0.248005 0.747150
  In 0.663353 0.336027 0.006996
  In 0.669644 0.497908 0.172843
  In 0.833353 0.338702 0.167735
  In 0.832745 0.500634 0.000660
  As 0.749993 0.418994 0.085234
  As 0.751490 0.583175 0.252575
  As 0.914940 0.420716 0.249976
  As 0.914004 0.584502 0.083564
  In 0.662398 0.335159 0.340861
  In 0.664672 0.500187 0.498550
  In 0.828209 0.337735 0.504206
  In 0.832673 0.499803 0.334739
  As 0.748316 0.418587 0.418106
  As 0.747563 0.583743 0.577618
  As 0.917471 0.417307 0.581682
  As 0.914726 0.580797 0.418223
  In 0.664303 0.332028 0.659290
  In 0.667484 0.500024 0.839466
  In 0.841347 0.330812 0.832577
  In 0.833251 0.503189 0.656975
  Sb 0.751644 0.416357 0.747497
  As 0.750128 0.583597 0.919653
  As 0.916798 0.416173 0.917950
  Sb 0.919472 0.583110 0.748340
  In 0.669592 0.672078 -0.002530
  In 0.669358 0.837125 0.162915
  In 0.830949 0.666885 0.166798
  In 0.829651 0.832096 -0.005466
  As 0.751116 0.751819 0.082151
  As 0.746414 0.915980 0.252898
  As 0.912392 0.749626 0.251087
  Sb 0.916054 0.915855 0.083603
  In 0.669008 0.662860 0.337009
  In 0.666090 0.833951 0.498857
  In 0.829731 0.664819 0.495464
  In 0.830938 0.833216 0.334055
  As 0.748579 0.750364 0.416360
  As 0.747527 0.918800 0.581151
  Sb 0.916449 0.751444 0.582352
  As 0.913341 0.916676 0.417149
  In 0.666801 0.668538 0.658085
  In 0.659439 0.839756 0.835306
  In 0.833072 0.664828 0.838859
  In 0.832084 0.842732 0.666287
  Sb 0.748071 0.753114 0.751374
  As 0.747576 0.918133 0.915305
  As 0.914803 0.749810 0.916697
  As 0.917454 0.918519 0.749791
K_POINTS automatic
  2 2 2 0 0 0

HUBBARD (atomic)
U In-5p -0.9725
U Ga-4p -3.2649999999999997
U As-4p 3.26
U Sb-5p 3.16
