&CONTROL
  calculation = 'scf',
  etot_conv_thr = 0.0001,
  forc_conv_thr = 0.00045,
  outdir = './tmp_In0.0Ga1.0As0.5Sb0.5_cube_3x3x3.1',
  prefix = 'In0.0Ga1.0As0.5Sb0.5_cube_3x3x3.1',
  pseudo_dir = '/work/i254/i254/gentles/data/pseudos/',
  restart_mode = 'from_scratch',
  verbosity = 'low',
/
&SYSTEM
  celldm(1) = 33.44399853939096,
  ecutwfc = 120,
  ibrav = 1,
  nat = 216,
  nbnd = 2160,
  ntyp = 4,
/
&ELECTRONS
  conv_thr = 1d-05,
  mixing_beta = 0.65,
/
&IONS
/
&CELL
  cell_dofree = 'all',
/
ATOMIC_SPECIES
  As  74.9216 As.pbe.NC-SR.standard.v0.5.UPF
  Ga  69.7230 Ga.pbe.NC-SR.standard.v0.5.UPF
  In  114.8180 In.pbe.NC-SR.standard.v0.5.UPF
  Sb  121.7600 Sb.pbe.NC-SR.standard.v0.5.UPF
ATOMIC_POSITIONS crystal
  Ga -0.001243 -0.001531 0.012873
  Ga 0.001984 0.160844 0.168263
  Ga 0.161604 -0.000086 0.169244
  Ga 0.162780 0.159795 -0.001410
  As 0.083240 0.081593 0.086626
  As 0.078757 0.245810 0.250033
  As 0.242224 0.081092 0.249873
  Sb 0.247707 0.248807 0.083809
  Ga -0.000319 0.000928 0.327050
  Ga 0.001966 0.160497 0.492700
  Ga 0.160442 0.005186 0.494165
  Ga 0.160957 0.162930 0.329613
  As 0.080484 0.081486 0.409098
  Sb 0.083144 0.245510 0.583883
  Sb 0.250811 0.082437 0.584665
  Sb 0.251326 0.246820 0.415179
  Ga -0.000306 0.001310 0.677040
  Ga 0.005352 0.164937 0.835670
  Ga 0.165913 0.005891 0.833932
  Ga 0.167916 0.165217 0.676033
  As 0.083864 0.084189 0.754022
  As 0.086593 0.244313 0.916487
  As 0.246321 0.082796 0.915899
  As 0.251008 0.249118 0.751235
  Ga 0.004504 0.327318 -0.005376
  Ga -0.005674 0.503398 0.172465
  Ga 0.159006 0.328328 0.171712
  Ga 0.168208 0.508566 0.001041
  Sb 0.080895 0.418904 0.084300
  As 0.081095 0.586740 0.247297
  Sb 0.247583 0.421100 0.247933
  As 0.250570 0.587076 0.080658
  Ga -0.001703 0.334451 0.324640
  Ga -0.003262 0.502702 0.496459
  Ga 0.166532 0.332970 0.499013
  Ga 0.166611 0.514200 0.330946
  Sb 0.083938 0.419748 0.411167
  Sb 0.084594 0.588046 0.579641
  Sb 0.252826 0.416486 0.584783
  As 0.250021 0.589290 0.415293
  Ga -0.004270 0.332295 0.666288
  Ga 0.006783 0.506845 0.840458
  Ga 0.169543 0.324212 0.835202
  Ga 0.166793 0.501054 0.669256
  Sb 0.083489 0.414227 0.753961
  As 0.084177 0.588091 0.924137
  Sb 0.252426 0.419120 0.916196
  Sb 0.252745 0.585509 0.754429
  Ga 0.002775 0.665613 0.008468
  Ga -0.002416 0.832782 0.166875
  Ga 0.163198 0.662815 0.162857
  Ga 0.164434 0.822424 0.002270
  As 0.081544 0.748268 0.087184
  As 0.078220 0.917132 0.246936
  Sb 0.247473 0.749102 0.249594
  Sb 0.248144 0.914519 0.082307
  Ga 0.003301 0.672285 0.326892
  Ga -0.000367 0.824952 0.497468
  Ga 0.171047 0.673472 0.492605
  Ga 0.156129 0.835583 0.330156
  As 0.082941 0.749848 0.413091
  Sb 0.080928 0.916478 0.583553
  As 0.253046 0.750813 0.576997
  Sb 0.248306 0.914771 0.416253
  Ga -0.007152 0.671850 0.660421
  Ga -0.005412 0.840439 0.828341
  Ga 0.166493 0.668176 0.844267
  Ga 0.173389 0.829235 0.660234
  Sb 0.083246 0.750752 0.749122
  Sb 0.082409 0.916896 0.919842
  As 0.251163 0.747268 0.922455
  Sb 0.252671 0.915305 0.751182
  Ga 0.329958 -0.002053 -0.009477
  Ga 0.325839 0.159887 0.171625
  Ga 0.501669 -0.000536 0.164910
  Ga 0.501423 0.166734 0.000114
  Sb 0.412239 0.080922 0.081175
  Sb 0.418333 0.248918 0.248333
  Sb 0.589043 0.082069 0.252048
  Sb 0.587143 0.251582 0.084571
  Ga 0.327141 0.003614 0.328507
  Ga 0.341139 0.171530 0.507799
  Ga 0.502642 -0.011537 0.496816
  Ga 0.508827 0.172363 0.339176
  Sb 0.419113 0.082692 0.417025
  As 0.421761 0.252793 0.588626
  Sb 0.583995 0.081522 0.582106
  As 0.585868 0.254931 0.420476
  Ga 0.341622 -0.008008 0.660111
  Ga 0.323122 0.165680 0.834842
  Ga 0.495243 -0.006593 0.837310
  Ga 0.503034 0.172491 0.668912
  Sb 0.415405 0.083749 0.750950
  Sb 0.415896 0.251008 0.914007
  Sb 0.587087 0.081042 0.915601
  As 0.587289 0.252273 0.746456
  Ga 0.338570 0.339381 0.005292
  Ga 0.332015 0.503526 0.157961
  Ga 0.497268 0.341499 0.162478
  Ga 0.497885 0.506694 0.004816
  As 0.417499 0.423197 0.082740
  Sb 0.417465 0.587260 0.248722
  Sb 0.587375 0.419411 0.250814
  As 0.580630 0.588172 0.085046
  Ga 0.334854 0.336267 0.332159
  Ga 0.329209 0.506794 0.495726
  Ga 0.504743 0.332917 0.507299
  Ga 0.506386 0.507026 0.337256
  Sb 0.420191 0.419117 0.419575
  Sb 0.420215 0.585525 0.581932
  As 0.585819 0.416693 0.583930
  As 0.587884 0.586277 0.416281
  Ga 0.338916 0.330852 0.671695
  Ga 0.346772 0.499971 0.833052
  Ga 0.502421 0.332490 0.824564
  Ga 0.503979 0.495892 0.667741
  As 0.421546 0.415508 0.748085
  As 0.419707 0.584590 0.919240
  Sb 0.581493 0.419770 0.914824
  As 0.581218 0.582062 0.748892
  Ga 0.334758 0.665737 -0.000007
  Ga 0.339022 0.827373 0.161327
  Ga 0.504420 0.673556 0.164520
  Ga 0.495635 0.828473 -0.003837
  As 0.418827 0.747135 0.079758
  Sb 0.419216 0.913422 0.251950
  As 0.585475 0.747992 0.254202
  Sb 0.586406 0.911987 0.081655
  Ga 0.334938 0.669805 0.340611
  Ga 0.339893 0.829002 0.500705
  Ga 0.507283 0.669928 0.495557
  Ga 0.504904 0.826301 0.338719
  As 0.420689 0.748575 0.418709
  As 0.421068 0.910771 0.579169
  As 0.584451 0.750591 0.578900
  As 0.586110 0.908412 0.418050
  Ga 0.329861 0.672044 0.662152
  Ga 0.332485 0.830799 0.843132
  Ga 0.504127 0.661350 0.836422
  Ga 0.503125 0.831201 0.658417
  Sb 0.418519 0.749948 0.751463
  As 0.414567 0.913181 0.918519
  As 0.580249 0.748299 0.917436
  Sb 0.585321 0.914381 0.750533
  Ga 0.677158 -0.000165 0.001883
  Ga 0.677683 0.166040 0.167712
  Ga 0.834319 -0.001616 0.168276
  Ga 0.825554 0.166016 -0.001234
  As 0.754256 0.081664 0.085377
  As 0.753313 0.248619 0.251565
  As 0.917668 0.080033 0.246199
  Sb 0.915562 0.248375 0.084422
  Ga 0.667615 -0.012275 0.335671
  Ga 0.666106 0.173653 0.499158
  Ga 0.829430 -0.006952 0.503355
  Ga 0.835280 0.162152 0.323439
  Sb 0.749737 0.081997 0.415640
  As 0.745588 0.251754 0.583240
  Sb 0.915710 0.081323 0.584499
  Sb 0.914025 0.249760 0.412895
  Ga 0.674537 -0.000257 0.667364
  Ga 0.668819 0.169111 0.826523
  Ga 0.828652 -0.003319 0.828850
  Ga 0.824587 0.167249 0.664496
  As 0.750250 0.083581 0.748510
  As 0.747635 0.247859 0.913410
  Sb 0.915565 0.079421 0.918515
  Sb 0.911992 0.248197 0.752888
  Ga 0.670941 0.331343 -0.006657
  Ga 0.666520 0.512345 0.165894
  Ga 0.833331 0.334893 0.175371
  Ga 0.840109 0.505953 0.008578
  Sb 0.750337 0.418981 0.085723
  As 0.750969 0.585488 0.250586
  As 0.913679 0.419136 0.251518
  As 0.919551 0.586188 0.089469
  Ga 0.670697 0.328413 0.335576
  Ga 0.662653 0.496366 0.494890
  Ga 0.822621 0.332465 0.498234
  Ga 0.826018 0.496326 0.330502
  As 0.745894 0.414991 0.414588
  Sb 0.745577 0.583998 0.582465
  Sb 0.910845 0.416969 0.581304
  Sb 0.912349 0.588280 0.410900
  Ga 0.666371 0.334229 0.664400
  Ga 0.666032 0.500836 0.824448
  Ga 0.823493 0.334853 0.834444
  Ga 0.826070 0.495715 0.672466
  As 0.744591 0.413778 0.749220
  Sb 0.747478 0.582789 0.918883
  Sb 0.916440 0.418060 0.917178
  Sb 0.916488 0.583319 0.751087
  Ga 0.657422 0.668167 0.001321
  Ga 0.667137 0.831679 0.177567
  Ga 0.838504 0.664235 0.171471
  Ga 0.833943 0.842323 0.002933
  Sb 0.750191 0.749760 0.086542
  As 0.751488 0.914754 0.250607
  As 0.917716 0.750556 0.248329
  As 0.915679 0.916593 0.089021
  Ga 0.669286 0.666082 0.333980
  Ga 0.668561 0.831480 0.500132
  Ga 0.829582 0.676213 0.498215
  Ga 0.829969 0.828238 0.327289
  As 0.747949 0.752074 0.413983
  As 0.748848 0.914120 0.582939
  As 0.913169 0.753261 0.580065
  Sb 0.915717 0.912789 0.412987
  Ga 0.655278 0.667632 0.665841
  Ga 0.666385 0.832542 0.844657
  Ga 0.831701 0.669316 0.835379
  Ga 0.835605 0.838274 0.660902
  Sb 0.747440 0.753094 0.748331
  As 0.752135 0.917828 0.917732
  Sb 0.918391 0.752806 0.920686
  As 0.912109 0.918680 0.747913
K_POINTS automatic
  2 2 2 0 0 0

HUBBARD (atomic)
U In-5p -1.0150000000000001
U Ga-4p -2.8
U As-4p 5.84
U Sb-5p 4.89
