&CONTROL
  calculation = 'scf',
  etot_conv_thr = 0.0001,
  forc_conv_thr = 0.00045,
  outdir = './tmp_In0.0Ga1.0As0.75Sb0.25_cube_3x3x3.4',
  prefix = 'In0.0Ga1.0As0.75Sb0.25_cube_3x3x3.4',
  pseudo_dir = '/work/i254/i254/gentles/data/pseudos/',
  restart_mode = 'from_scratch',
  verbosity = 'low',
/
&SYSTEM
  celldm(1) = 32.85045468778537,
  ecutwfc = 120,
  ibrav = 1,
  nat = 216,
  nbnd = 2160,
  ntyp = 4,
/
&ELECTRONS
  conv_thr = 1d-05,
  mixing_beta = 0.65,
/
&IONS
/
&CELL
  cell_dofree = 'all',
/
ATOMIC_SPECIES
  As  74.9216 As.pbe.NC-SR.standard.v0.5.UPF
  Ga  69.7230 Ga.pbe.NC-SR.standard.v0.5.UPF
  In  114.8180 In.pbe.NC-SR.standard.v0.5.UPF
  Sb  121.7600 Sb.pbe.NC-SR.standard.v0.5.UPF
ATOMIC_POSITIONS crystal
  Ga -0.003222 0.001076 0.005313
  Ga 0.011253 0.167502 0.168552
  Ga 0.172160 0.003140 0.162118
  Ga 0.167317 0.167573 -0.000803
  As 0.086312 0.084115 0.082169
  As 0.087392 0.253935 0.249342
  As 0.252934 0.085513 0.247059
  As 0.248098 0.249633 0.085015
  Ga -0.006040 -0.005790 0.339714
  Ga -0.000748 0.169953 0.508966
  Ga 0.162006 -0.007998 0.504556
  Ga 0.171554 0.171831 0.328058
  Sb 0.083672 0.085192 0.417826
  As 0.084489 0.255421 0.583381
  Sb 0.248919 0.083445 0.584120
  As 0.249226 0.254304 0.412696
  Ga 0.003060 0.003111 0.663445
  Ga 0.004814 0.160606 0.837966
  Ga 0.171850 0.002831 0.829349
  Ga 0.161423 0.172406 0.669504
  As 0.085223 0.083387 0.749534
  As 0.083865 0.249838 0.916969
  As 0.249566 0.083268 0.917577
  As 0.243216 0.251349 0.751246
  Ga 0.006205 0.341088 -0.003703
  Ga -0.002036 0.500487 0.167165
  Ga 0.166965 0.334716 0.165333
  Ga 0.161869 0.505961 0.004013
  As 0.083713 0.420339 0.085206
  As 0.081658 0.582816 0.249096
  As 0.248570 0.416195 0.248137
  As 0.247795 0.585105 0.083307
  Ga 0.003528 0.338258 0.328843
  Ga 0.000965 0.501413 0.497034
  Ga 0.166126 0.334892 0.497353
  Ga 0.162813 0.497099 0.328515
  As 0.083407 0.417716 0.414819
  As 0.080969 0.583072 0.584742
  As 0.246279 0.417451 0.583102
  Sb 0.247883 0.583765 0.417980
  Ga 0.003934 0.341509 0.661134
  Ga 0.000594 0.503732 0.832305
  Ga 0.160345 0.332366 0.830371
  Ga 0.166251 0.502387 0.666868
  As 0.082590 0.420761 0.749031
  As 0.083267 0.584480 0.915835
  Sb 0.248338 0.418768 0.918309
  As 0.248997 0.586773 0.749082
  Ga 0.003888 0.661573 0.004084
  Ga -0.003393 0.825501 0.161071
  Ga 0.167048 0.664819 0.168202
  Ga 0.171587 0.827486 0.005270
  As 0.085483 0.745252 0.084525
  Sb 0.082559 0.914344 0.247238
  As 0.250043 0.749276 0.246723
  As 0.252605 0.915738 0.082709
  Ga -0.000450 0.665205 0.333083
  Ga -0.002063 0.830536 0.501588
  Ga 0.161156 0.669667 0.505812
  Ga 0.165593 0.822453 0.332553
  As 0.079942 0.747538 0.418329
  As 0.080613 0.911729 0.585674
  As 0.250295 0.749789 0.585042
  Sb 0.252421 0.911791 0.416326
  Ga -0.000319 0.666069 0.666749
  Ga 0.005728 0.826729 0.829060
  Ga 0.166960 0.666676 0.833786
  Ga 0.166647 0.831125 0.667683
  As 0.086166 0.745794 0.747426
  Sb 0.086515 0.916157 0.918479
  As 0.250565 0.747341 0.918125
  As 0.248610 0.912026 0.750920
  Ga 0.333596 -0.001967 -0.000874
  Ga 0.333144 0.168687 0.165130
  Ga 0.496651 0.001440 0.169684
  Ga 0.500287 0.155054 0.000587
  As 0.414098 0.080670 0.084685
  As 0.413599 0.251452 0.250480
  As 0.582160 0.083772 0.250347
  Sb 0.579787 0.252657 0.085105
  Ga 0.335913 0.001344 0.328301
  Ga 0.331198 0.166913 0.487566
  Ga 0.495915 0.002129 0.502959
  Ga 0.496392 0.164589 0.329756
  As 0.416126 0.082149 0.413051
  Sb 0.413722 0.251431 0.580205
  As 0.585743 0.078842 0.583325
  Sb 0.584550 0.251164 0.416283
  Ga 0.331997 -0.011574 0.666777
  Ga 0.323973 0.168125 0.832906
  Ga 0.503061 -0.007736 0.837967
  Ga 0.502073 0.161039 0.661669
  Sb 0.415243 0.078443 0.751890
  Sb 0.415984 0.248852 0.919485
  As 0.583208 0.078240 0.915165
  Sb 0.584042 0.251153 0.748315
  Ga 0.333301 0.334204 0.010356
  Ga 0.327033 0.499168 0.163655
  Ga 0.494395 0.339753 0.173115
  Ga 0.497810 0.503436 0.002406
  As 0.415205 0.420578 0.086703
  Sb 0.418238 0.584243 0.248335
  As 0.584792 0.419715 0.249946
  As 0.584972 0.585264 0.081215
  Ga 0.332731 0.335954 0.332563
  Ga 0.336019 0.496792 0.504546
  Ga 0.500375 0.344247 0.499780
  Ga 0.504891 0.498241 0.336589
  As 0.416333 0.419154 0.415602
  As 0.416664 0.584252 0.582780
  As 0.586709 0.423055 0.579797
  As 0.585172 0.583024 0.416503
  Ga 0.322136 0.333175 0.667972
  Ga 0.333214 0.511603 0.834449
  Ga 0.504079 0.340177 0.839538
  Ga 0.505933 0.506523 0.662132
  Sb 0.416208 0.421294 0.748251
  As 0.417774 0.587850 0.918929
  As 0.582595 0.423521 0.921648
  As 0.582894 0.585622 0.751799
  Ga 0.332720 0.666149 0.001695
  Ga 0.333515 0.834039 0.165614
  Ga 0.504819 0.670206 0.160770
  Ga 0.494034 0.826690 -0.004058
  As 0.414617 0.748952 0.082958
  As 0.415799 0.915069 0.248600
  As 0.583795 0.747190 0.250405
  Sb 0.581724 0.911970 0.083863
  Ga 0.332535 0.673979 0.332379
  Ga 0.339750 0.827209 0.504353
  Ga 0.496333 0.661840 0.493866
  Ga 0.496512 0.828665 0.328495
  As 0.417361 0.748933 0.415375
  As 0.418110 0.913739 0.584846
  Sb 0.583173 0.747395 0.583429
  Sb 0.582732 0.915983 0.414864
  Ga 0.332835 0.667306 0.666801
  Ga 0.330964 0.830815 0.834608
  Ga 0.499993 0.668492 0.833112
  Ga 0.497647 0.834944 0.672074
  As 0.414575 0.749963 0.751596
  As 0.414512 0.913078 0.916399
  As 0.583748 0.748737 0.915537
  As 0.584726 0.913419 0.752025
  Ga 0.665576 -0.003327 -0.007284
  Ga 0.665878 0.169496 0.174617
  Ga 0.833528 -0.012906 0.167282
  Ga 0.839839 0.163720 -0.000819
  Sb 0.749611 0.080006 0.084931
  As 0.749365 0.254473 0.251619
  Sb 0.914932 0.082672 0.249448
  Sb 0.921703 0.254745 0.084952
  Ga 0.669579 0.002680 0.329372
  Ga 0.670373 0.160915 0.502204
  Ga 0.834454 -0.001870 0.500176
  Ga 0.825342 0.168557 0.334454
  As 0.750687 0.080683 0.417019
  As 0.751029 0.248744 0.580594
  As 0.915717 0.082721 0.583353
  Sb 0.916110 0.254140 0.417109
  Ga 0.666322 -0.005300 0.667045
  Ga 0.666454 0.158342 0.831611
  Ga 0.830768 0.000324 0.836469
  Ga 0.829206 0.162690 0.664422
  As 0.748948 0.078568 0.748773
  Sb 0.749986 0.251370 0.917492
  As 0.917992 0.080227 0.917547
  Sb 0.920904 0.249244 0.748426
  Ga 0.666994 0.344191 0.003244
  Ga 0.666113 0.504115 0.167010
  Ga 0.830655 0.339189 0.170795
  Ga 0.834638 0.503032 0.001292
  As 0.751030 0.422835 0.086019
  As 0.749931 0.584065 0.250698
  As 0.916271 0.420053 0.251033
  As 0.917032 0.583022 0.085216
  Ga 0.670866 0.340352 0.330468
  Ga 0.669550 0.504312 0.498818
  Ga 0.829720 0.340484 0.502508
  Ga 0.834488 0.502432 0.334036
  As 0.750611 0.422035 0.416418
  As 0.753023 0.585240 0.581656
  As 0.918157 0.421157 0.580304
  As 0.917530 0.583747 0.415692
  Ga 0.668249 0.334690 0.656902
  Ga 0.661463 0.506050 0.838499
  Ga 0.839904 0.340175 0.836525
  Ga 0.840225 0.506970 0.660991
  Sb 0.750740 0.422790 0.747986
  As 0.749440 0.583974 0.917975
  As 0.920353 0.423365 0.917863
  As 0.918145 0.585161 0.749005
  Ga 0.667735 0.667638 -0.000358
  Ga 0.670362 0.827259 0.172862
  Ga 0.833304 0.665373 0.167235
  Ga 0.827838 0.835498 0.002418
  As 0.750037 0.748418 0.085330
  As 0.751147 0.912046 0.253240
  As 0.916238 0.747341 0.249583
  As 0.915858 0.911899 0.082318
  Ga 0.666436 0.665546 0.333559
  Ga 0.675160 0.831621 0.498453
  Ga 0.834783 0.665786 0.498126
  Ga 0.834142 0.829604 0.334179
  As 0.752403 0.746764 0.414931
  As 0.751315 0.915510 0.582739
  As 0.916254 0.746591 0.582348
  As 0.913858 0.911266 0.420462
  Ga 0.670684 0.661751 0.670339
  Ga 0.667437 0.829936 0.832282
  Ga 0.829630 0.661587 0.829685
  Ga 0.829777 0.827089 0.661801
  As 0.749809 0.747238 0.749353
  As 0.748557 0.914336 0.914531
  Sb 0.915387 0.746755 0.918082
  Sb 0.916387 0.914929 0.747755
K_POINTS automatic
  2 2 2 0 0 0

HUBBARD (atomic)
U In-5p -0.9725
U Ga-4p -3.2649999999999997
U As-4p 5.84
U Sb-5p 4.89
