&CONTROL
  calculation = 'vc-relax',
  etot_conv_thr = 0.0001,
  forc_conv_thr = 0.00045,
  outdir = './tmp_In0.0Ga1.0As0.75Sb0.25_cube_3x3x3.4',
  prefix = 'In0.0Ga1.0As0.75Sb0.25_cube_3x3x3.4',
  pseudo_dir = '/work/i254/i254/gentles/data/pseudos/',
  restart_mode = 'from_scratch',
  verbosity = 'low',
/
&SYSTEM
  celldm(1) = 32.719875,
  ecutwfc = 120,
  ibrav = 1,
  nat = 216,
  nbnd = 1512,
  ntyp = 4,
/
&ELECTRONS
  conv_thr = 1d-05,
  mixing_beta = 0.65,
/
&IONS
/
&CELL
  cell_dofree = 'all',
/
ATOMIC_SPECIES
  As  74.9216 As.pbe.NC-SR.standard.v0.5.UPF
  Ga  69.7230 Ga.pbe.NC-SR.standard.v0.5.UPF
  In  114.8180 In.pbe.NC-SR.standard.v0.5.UPF
  Sb  121.7600 Sb.pbe.NC-SR.standard.v0.5.UPF
ATOMIC_POSITIONS crystal
  Ga 0.000000 0.000000 0.000000
  Ga 0.000000 0.166667 0.166667
  Ga 0.166667 0.000000 0.166667
  Ga 0.166667 0.166667 0.000000
  As 0.083333 0.083333 0.083333
  As 0.083333 0.250000 0.250000
  As 0.250000 0.083333 0.250000
  As 0.250000 0.250000 0.083333
  Ga 0.000000 0.000000 0.333333
  Ga 0.000000 0.166667 0.500000
  Ga 0.166667 0.000000 0.500000
  Ga 0.166667 0.166667 0.333333
  Sb 0.083333 0.083333 0.416667
  As 0.083333 0.250000 0.583333
  Sb 0.250000 0.083333 0.583333
  As 0.250000 0.250000 0.416667
  Ga 0.000000 0.000000 0.666667
  Ga 0.000000 0.166667 0.833333
  Ga 0.166667 0.000000 0.833333
  Ga 0.166667 0.166667 0.666667
  As 0.083333 0.083333 0.750000
  As 0.083333 0.250000 0.916667
  As 0.250000 0.083333 0.916667
  As 0.250000 0.250000 0.750000
  Ga 0.000000 0.333333 0.000000
  Ga 0.000000 0.500000 0.166667
  Ga 0.166667 0.333333 0.166667
  Ga 0.166667 0.500000 0.000000
  As 0.083333 0.416667 0.083333
  As 0.083333 0.583333 0.250000
  As 0.250000 0.416667 0.250000
  As 0.250000 0.583333 0.083333
  Ga 0.000000 0.333333 0.333333
  Ga 0.000000 0.500000 0.500000
  Ga 0.166667 0.333333 0.500000
  Ga 0.166667 0.500000 0.333333
  As 0.083333 0.416667 0.416667
  As 0.083333 0.583333 0.583333
  As 0.250000 0.416667 0.583333
  Sb 0.250000 0.583333 0.416667
  Ga 0.000000 0.333333 0.666667
  Ga 0.000000 0.500000 0.833333
  Ga 0.166667 0.333333 0.833333
  Ga 0.166667 0.500000 0.666667
  As 0.083333 0.416667 0.750000
  As 0.083333 0.583333 0.916667
  Sb 0.250000 0.416667 0.916667
  As 0.250000 0.583333 0.750000
  Ga 0.000000 0.666667 0.000000
  Ga 0.000000 0.833333 0.166667
  Ga 0.166667 0.666667 0.166667
  Ga 0.166667 0.833333 0.000000
  As 0.083333 0.750000 0.083333
  Sb 0.083333 0.916667 0.250000
  As 0.250000 0.750000 0.250000
  As 0.250000 0.916667 0.083333
  Ga 0.000000 0.666667 0.333333
  Ga 0.000000 0.833333 0.500000
  Ga 0.166667 0.666667 0.500000
  Ga 0.166667 0.833333 0.333333
  As 0.083333 0.750000 0.416667
  As 0.083333 0.916667 0.583333
  As 0.250000 0.750000 0.583333
  Sb 0.250000 0.916667 0.416667
  Ga 0.000000 0.666667 0.666667
  Ga 0.000000 0.833333 0.833333
  Ga 0.166667 0.666667 0.833333
  Ga 0.166667 0.833333 0.666667
  As 0.083333 0.750000 0.750000
  Sb 0.083333 0.916667 0.916667
  As 0.250000 0.750000 0.916667
  As 0.250000 0.916667 0.750000
  Ga 0.333333 0.000000 0.000000
  Ga 0.333333 0.166667 0.166667
  Ga 0.500000 0.000000 0.166667
  Ga 0.500000 0.166667 0.000000
  As 0.416667 0.083333 0.083333
  As 0.416667 0.250000 0.250000
  As 0.583333 0.083333 0.250000
  Sb 0.583333 0.250000 0.083333
  Ga 0.333333 0.000000 0.333333
  Ga 0.333333 0.166667 0.500000
  Ga 0.500000 0.000000 0.500000
  Ga 0.500000 0.166667 0.333333
  As 0.416667 0.083333 0.416667
  Sb 0.416667 0.250000 0.583333
  As 0.583333 0.083333 0.583333
  Sb 0.583333 0.250000 0.416667
  Ga 0.333333 0.000000 0.666667
  Ga 0.333333 0.166667 0.833333
  Ga 0.500000 0.000000 0.833333
  Ga 0.500000 0.166667 0.666667
  Sb 0.416667 0.083333 0.750000
  Sb 0.416667 0.250000 0.916667
  As 0.583333 0.083333 0.916667
  Sb 0.583333 0.250000 0.750000
  Ga 0.333333 0.333333 0.000000
  Ga 0.333333 0.500000 0.166667
  Ga 0.500000 0.333333 0.166667
  Ga 0.500000 0.500000 0.000000
  As 0.416667 0.416667 0.083333
  Sb 0.416667 0.583333 0.250000
  As 0.583333 0.416667 0.250000
  As 0.583333 0.583333 0.083333
  Ga 0.333333 0.333333 0.333333
  Ga 0.333333 0.500000 0.500000
  Ga 0.500000 0.333333 0.500000
  Ga 0.500000 0.500000 0.333333
  As 0.416667 0.416667 0.416667
  As 0.416667 0.583333 0.583333
  As 0.583333 0.416667 0.583333
  As 0.583333 0.583333 0.416667
  Ga 0.333333 0.333333 0.666667
  Ga 0.333333 0.500000 0.833333
  Ga 0.500000 0.333333 0.833333
  Ga 0.500000 0.500000 0.666667
  Sb 0.416667 0.416667 0.750000
  As 0.416667 0.583333 0.916667
  As 0.583333 0.416667 0.916667
  As 0.583333 0.583333 0.750000
  Ga 0.333333 0.666667 0.000000
  Ga 0.333333 0.833333 0.166667
  Ga 0.500000 0.666667 0.166667
  Ga 0.500000 0.833333 0.000000
  As 0.416667 0.750000 0.083333
  As 0.416667 0.916667 0.250000
  As 0.583333 0.750000 0.250000
  Sb 0.583333 0.916667 0.083333
  Ga 0.333333 0.666667 0.333333
  Ga 0.333333 0.833333 0.500000
  Ga 0.500000 0.666667 0.500000
  Ga 0.500000 0.833333 0.333333
  As 0.416667 0.750000 0.416667
  As 0.416667 0.916667 0.583333
  Sb 0.583333 0.750000 0.583333
  Sb 0.583333 0.916667 0.416667
  Ga 0.333333 0.666667 0.666667
  Ga 0.333333 0.833333 0.833333
  Ga 0.500000 0.666667 0.833333
  Ga 0.500000 0.833333 0.666667
  As 0.416667 0.750000 0.750000
  As 0.416667 0.916667 0.916667
  As 0.583333 0.750000 0.916667
  As 0.583333 0.916667 0.750000
  Ga 0.666667 0.000000 0.000000
  Ga 0.666667 0.166667 0.166667
  Ga 0.833333 0.000000 0.166667
  Ga 0.833333 0.166667 0.000000
  Sb 0.750000 0.083333 0.083333
  As 0.750000 0.250000 0.250000
  Sb 0.916667 0.083333 0.250000
  Sb 0.916667 0.250000 0.083333
  Ga 0.666667 0.000000 0.333333
  Ga 0.666667 0.166667 0.500000
  Ga 0.833333 0.000000 0.500000
  Ga 0.833333 0.166667 0.333333
  As 0.750000 0.083333 0.416667
  As 0.750000 0.250000 0.583333
  As 0.916667 0.083333 0.583333
  Sb 0.916667 0.250000 0.416667
  Ga 0.666667 0.000000 0.666667
  Ga 0.666667 0.166667 0.833333
  Ga 0.833333 0.000000 0.833333
  Ga 0.833333 0.166667 0.666667
  As 0.750000 0.083333 0.750000
  Sb 0.750000 0.250000 0.916667
  As 0.916667 0.083333 0.916667
  Sb 0.916667 0.250000 0.750000
  Ga 0.666667 0.333333 0.000000
  Ga 0.666667 0.500000 0.166667
  Ga 0.833333 0.333333 0.166667
  Ga 0.833333 0.500000 0.000000
  As 0.750000 0.416667 0.083333
  As 0.750000 0.583333 0.250000
  As 0.916667 0.416667 0.250000
  As 0.916667 0.583333 0.083333
  Ga 0.666667 0.333333 0.333333
  Ga 0.666667 0.500000 0.500000
  Ga 0.833333 0.333333 0.500000
  Ga 0.833333 0.500000 0.333333
  As 0.750000 0.416667 0.416667
  As 0.750000 0.583333 0.583333
  As 0.916667 0.416667 0.583333
  As 0.916667 0.583333 0.416667
  Ga 0.666667 0.333333 0.666667
  Ga 0.666667 0.500000 0.833333
  Ga 0.833333 0.333333 0.833333
  Ga 0.833333 0.500000 0.666667
  Sb 0.750000 0.416667 0.750000
  As 0.750000 0.583333 0.916667
  As 0.916667 0.416667 0.916667
  As 0.916667 0.583333 0.750000
  Ga 0.666667 0.666667 0.000000
  Ga 0.666667 0.833333 0.166667
  Ga 0.833333 0.666667 0.166667
  Ga 0.833333 0.833333 0.000000
  As 0.750000 0.750000 0.083333
  As 0.750000 0.916667 0.250000
  As 0.916667 0.750000 0.250000
  As 0.916667 0.916667 0.083333
  Ga 0.666667 0.666667 0.333333
  Ga 0.666667 0.833333 0.500000
  Ga 0.833333 0.666667 0.500000
  Ga 0.833333 0.833333 0.333333
  As 0.750000 0.750000 0.416667
  As 0.750000 0.916667 0.583333
  As 0.916667 0.750000 0.583333
  As 0.916667 0.916667 0.416667
  Ga 0.666667 0.666667 0.666667
  Ga 0.666667 0.833333 0.833333
  Ga 0.833333 0.666667 0.833333
  Ga 0.833333 0.833333 0.666667
  As 0.750000 0.750000 0.750000
  As 0.750000 0.916667 0.916667
  Sb 0.916667 0.750000 0.916667
  Sb 0.916667 0.916667 0.750000
K_POINTS gamma

HUBBARD (atomic)
U In-5p -0.9725
U Ga-4p -3.2649999999999997
U As-4p 5.84
U Sb-5p 4.89
