&CONTROL
  calculation = 'scf',
  etot_conv_thr = 0.0001,
  forc_conv_thr = 0.00045,
  outdir = './tmp_In1.0Ga0.0As0.5Sb0.5_cube_3x3x3.5',
  prefix = 'In1.0Ga0.0As0.5Sb0.5_cube_3x3x3.5',
  pseudo_dir = '/work/i254/i254/gentles/data/pseudos/',
  restart_mode = 'from_scratch',
  verbosity = 'low',
/
&SYSTEM
  celldm(1) = 35.742637277099774,
  ecutwfc = 120,
  ibrav = 1,
  nat = 216,
  nbnd = 2160,
  ntyp = 4,
/
&ELECTRONS
  conv_thr = 1d-05,
  mixing_beta = 0.65,
/
&IONS
/
&CELL
  cell_dofree = 'all',
/
ATOMIC_SPECIES
  As  74.9216 As.pbe.NC-SR.standard.v0.5.UPF
  Ga  69.7230 Ga.pbe.NC-SR.standard.v0.5.UPF
  In  114.8180 In.pbe.NC-SR.standard.v0.5.UPF
  Sb  121.7600 Sb.pbe.NC-SR.standard.v0.5.UPF
ATOMIC_POSITIONS crystal
  In 0.004263 -0.000842 -0.003165
  In -0.001001 0.167737 0.175898
  In 0.167573 0.002713 0.176433
  In 0.166566 0.173820 0.001974
  Sb 0.084076 0.085752 0.087392
  As 0.084368 0.250146 0.252600
  As 0.246732 0.087447 0.254518
  As 0.248397 0.250997 0.087897
  In -0.002058 0.001924 0.335297
  In 0.001456 0.161813 0.501467
  In 0.160591 0.004117 0.493685
  In 0.163899 0.168549 0.334485
  As 0.080527 0.085573 0.413418
  As 0.080939 0.245550 0.580836
  Sb 0.248522 0.082997 0.580682
  As 0.246193 0.250516 0.414028
  In -0.006467 0.004127 0.671886
  In 0.001292 0.168804 0.829185
  In 0.162318 -0.002348 0.825950
  In 0.159389 0.165183 0.665013
  As 0.079993 0.083831 0.748897
  As 0.081849 0.247109 0.916114
  Sb 0.246392 0.081004 0.916053
  Sb 0.247562 0.249912 0.748936
  In 0.001805 0.328256 -0.003312
  In -0.005992 0.502890 0.170817
  In 0.169367 0.330176 0.173654
  In 0.165976 0.498549 0.002096
  Sb 0.081118 0.414037 0.088140
  As 0.080759 0.578161 0.252474
  As 0.249307 0.416195 0.253683
  Sb 0.252014 0.580040 0.089301
  In 0.004917 0.337095 0.329010
  In 0.002241 0.496411 0.491264
  In 0.160682 0.326734 0.495664
  In 0.166984 0.499259 0.333297
  As 0.085941 0.415036 0.412963
  Sb 0.082643 0.584356 0.579282
  Sb 0.249538 0.414273 0.576552
  As 0.250364 0.581939 0.414382
  In -0.001989 0.324242 0.663058
  In -0.008017 0.503217 0.828879
  In 0.162370 0.329963 0.838844
  In 0.165992 0.498225 0.663662
  Sb 0.079490 0.413925 0.749044
  Sb 0.079062 0.583003 0.918152
  Sb 0.252900 0.414048 0.919563
  Sb 0.251676 0.584530 0.747439
  In -0.008410 0.663799 0.005512
  In 0.002977 0.839983 0.172411
  In 0.161554 0.660766 0.173278
  In 0.160496 0.838565 -0.005264
  Sb 0.081614 0.750350 0.085259
  As 0.082049 0.922280 0.253863
  Sb 0.250271 0.746552 0.253726
  Sb 0.247896 0.919158 0.083165
  In -0.000883 0.657618 0.333549
  In -0.004679 0.837129 0.496478
  In 0.176614 0.667958 0.499878
  In 0.163358 0.838200 0.330425
  Sb 0.083167 0.748617 0.416245
  Sb 0.080493 0.920119 0.584526
  As 0.254830 0.751806 0.582336
  Sb 0.253002 0.918461 0.416307
  In -0.005429 0.664020 0.668477
  In -0.001979 0.840527 0.831846
  In 0.165740 0.667395 0.834161
  In 0.173550 0.833604 0.662932
  Sb 0.082689 0.752387 0.747854
  As 0.081627 0.919401 0.911530
  Sb 0.251751 0.755094 0.914544
  As 0.250200 0.915596 0.748426
  In 0.339395 -0.004458 -0.006146
  In 0.325366 0.165152 0.168423
  In 0.506286 -0.005946 0.162384
  In 0.505910 0.172048 0.004559
  Sb 0.417406 0.083313 0.083832
  Sb 0.415261 0.250500 0.251917
  Sb 0.585335 0.083550 0.249407
  As 0.587371 0.253717 0.084011
  In 0.334120 0.010707 0.332522
  In 0.329834 0.169338 0.492470
  In 0.489503 0.000667 0.499158
  In 0.501512 0.166695 0.340162
  As 0.414919 0.087168 0.417040
  Sb 0.416985 0.250686 0.579417
  Sb 0.583879 0.080979 0.579734
  As 0.583864 0.252192 0.416164
  In 0.331733 -0.008451 0.663559
  In 0.333498 0.164780 0.833270
  In 0.504645 -0.007975 0.832380
  In 0.501874 0.165669 0.665619
  Sb 0.417728 0.077632 0.748775
  Sb 0.416703 0.252585 0.919281
  Sb 0.586365 0.080822 0.919768
  Sb 0.586642 0.252107 0.749723
  In 0.334473 0.333038 0.013217
  In 0.337695 0.493957 0.175242
  In 0.505229 0.334651 0.166955
  In 0.496355 0.495814 0.005116
  As 0.418611 0.415042 0.090487
  As 0.416862 0.579935 0.254535
  As 0.582506 0.416060 0.251886
  Sb 0.585475 0.581610 0.084341
  In 0.328792 0.336912 0.337231
  In 0.334609 0.500227 0.490819
  In 0.499459 0.334957 0.491246
  In 0.500642 0.499266 0.332465
  As 0.417071 0.417779 0.412310
  Sb 0.417779 0.585595 0.580841
  Sb 0.585263 0.416219 0.580174
  As 0.581808 0.582376 0.414418
  In 0.335900 0.336611 0.667421
  In 0.337354 0.496353 0.828929
  In 0.497986 0.338183 0.829870
  In 0.499101 0.498361 0.668629
  As 0.417597 0.416934 0.747683
  Sb 0.418260 0.584116 0.915499
  Sb 0.586462 0.416070 0.918831
  Sb 0.586527 0.586195 0.751091
  In 0.332272 0.667455 0.001276
  In 0.332021 0.831670 0.165864
  In 0.497011 0.660572 0.171988
  In 0.507994 0.836187 -0.003515
  Sb 0.421838 0.750699 0.082481
  Sb 0.416233 0.917828 0.251225
  Sb 0.583193 0.750400 0.250546
  As 0.589236 0.914834 0.081268
  In 0.337638 0.661476 0.338843
  In 0.338675 0.829487 0.501548
  In 0.507412 0.669184 0.497603
  In 0.494918 0.828508 0.339221
  As 0.417717 0.745136 0.420074
  As 0.416930 0.913326 0.583149
  As 0.583173 0.752987 0.583742
  Sb 0.582074 0.915597 0.420242
  In 0.336753 0.675717 0.666794
  In 0.338943 0.838612 0.828338
  In 0.501675 0.676231 0.833433
  In 0.501658 0.834368 0.665185
  As 0.419851 0.755547 0.748462
  As 0.422198 0.913775 0.914323
  As 0.586507 0.753402 0.914884
  As 0.585371 0.912172 0.748666
  In 0.672960 -0.003950 0.003667
  In 0.667368 0.168412 0.160214
  In 0.831341 0.006695 0.169373
  In 0.827150 0.164966 0.001472
  As 0.749007 0.083018 0.084090
  Sb 0.750936 0.252851 0.248753
  As 0.917739 0.081972 0.251474
  Sb 0.914529 0.249679 0.086180
  In 0.670458 -0.005116 0.330731
  In 0.666997 0.174390 0.499567
  In 0.836458 -0.002734 0.506308
  In 0.838253 0.164100 0.330177
  Sb 0.752268 0.082636 0.418556
  As 0.751777 0.250513 0.582700
  As 0.917857 0.082804 0.583607
  Sb 0.919023 0.252198 0.416326
  In 0.666201 -0.006493 0.666673
  In 0.671270 0.169146 0.838007
  In 0.831798 -0.007572 0.834298
  In 0.837154 0.168085 0.660817
  Sb 0.751679 0.082743 0.748267
  As 0.752092 0.249471 0.918289
  Sb 0.915737 0.083563 0.915064
  As 0.916065 0.247354 0.747393
  In 0.673350 0.330093 0.002840
  In 0.666924 0.491056 0.168404
  In 0.835090 0.343790 0.167547
  In 0.827676 0.503801 0.004182
  As 0.750118 0.417043 0.083778
  Sb 0.752239 0.579672 0.250318
  As 0.918391 0.418067 0.252284
  As 0.911773 0.582169 0.086132
  In 0.662722 0.335608 0.334885
  In 0.666345 0.501912 0.491814
  In 0.824233 0.333986 0.497192
  In 0.836504 0.493721 0.336885
  As 0.746845 0.416607 0.414113
  Sb 0.750051 0.583657 0.582522
  Sb 0.915161 0.415460 0.580906
  As 0.918287 0.577004 0.414285
  In 0.675720 0.334968 0.665359
  In 0.675041 0.500533 0.835359
  In 0.831274 0.327272 0.829823
  In 0.832903 0.498548 0.672443
  As 0.752699 0.415126 0.752071
  As 0.751267 0.585813 0.917237
  Sb 0.911766 0.415953 0.917172
  As 0.911308 0.584802 0.749422
  In 0.667585 0.669787 -0.004937
  In 0.670607 0.834871 0.163831
  In 0.830344 0.669031 0.160139
  In 0.824993 0.833191 -0.000468
  As 0.746853 0.750086 0.080528
  As 0.751812 0.918214 0.246359
  Sb 0.915988 0.750259 0.251391
  Sb 0.914245 0.918695 0.083210
  In 0.664423 0.662544 0.335759
  In 0.668929 0.834794 0.509827
  In 0.839317 0.660697 0.494184
  In 0.832294 0.841892 0.333273
  Sb 0.750256 0.751160 0.417969
  As 0.752414 0.916407 0.587729
  Sb 0.912751 0.751553 0.583520
  As 0.915162 0.920707 0.416729
  In 0.666949 0.675857 0.664642
  In 0.667258 0.833401 0.832675
  In 0.827797 0.665217 0.828978
  In 0.829400 0.835845 0.672382
  As 0.748072 0.752180 0.750908
  As 0.747609 0.914781 0.916164
  Sb 0.912874 0.750686 0.914712
  As 0.914008 0.917472 0.750362
K_POINTS automatic
  2 2 2 0 0 0

HUBBARD (atomic)
U In-5p -1.0150000000000001
U Ga-4p -2.8
U As-4p 3.26
U Sb-5p 3.16
