&CONTROL
  calculation = 'scf',
  etot_conv_thr = 0.0001,
  forc_conv_thr = 0.00045,
  outdir = './tmp_In1.0Ga0.0As0.75Sb0.25_cube_3x3x3.4',
  prefix = 'In1.0Ga0.0As0.75Sb0.25_cube_3x3x3.4',
  pseudo_dir = '/work/i254/i254/gentles/data/pseudos/',
  restart_mode = 'from_scratch',
  verbosity = 'low',
/
&SYSTEM
  celldm(1) = 35.13067149340232,
  ecutwfc = 120,
  ibrav = 1,
  nat = 216,
  nbnd = 2160,
  ntyp = 4,
/
&ELECTRONS
  conv_thr = 1d-05,
  mixing_beta = 0.65,
/
&IONS
/
&CELL
  cell_dofree = 'all',
/
ATOMIC_SPECIES
  As  74.9216 As.pbe.NC-SR.standard.v0.5.UPF
  Ga  69.7230 Ga.pbe.NC-SR.standard.v0.5.UPF
  In  114.8180 In.pbe.NC-SR.standard.v0.5.UPF
  Sb  121.7600 Sb.pbe.NC-SR.standard.v0.5.UPF
ATOMIC_POSITIONS crystal
  In 0.002319 -0.003071 0.000166
  In -0.001202 0.161215 0.162384
  In 0.167880 -0.001005 0.166467
  In 0.171177 0.162077 0.005473
  As 0.084580 0.079379 0.083250
  Sb 0.082946 0.250592 0.248479
  As 0.252048 0.082029 0.247792
  As 0.252638 0.248405 0.084486
  In 0.000331 -0.000738 0.323757
  In -0.009560 0.165482 0.500096
  In 0.167729 -0.004828 0.505619
  In 0.174667 0.166656 0.330710
  Sb 0.084051 0.082536 0.416382
  Sb 0.085587 0.249210 0.580874
  As 0.253284 0.079654 0.583395
  As 0.253961 0.250372 0.412082
  In -0.002632 -0.002363 0.660801
  In -0.003995 0.160931 0.839782
  In 0.171075 -0.003780 0.838787
  In 0.176152 0.165662 0.666312
  Sb 0.085104 0.080667 0.749943
  Sb 0.084691 0.250637 0.920443
  As 0.252049 0.081786 0.919414
  As 0.252021 0.248794 0.753419
  In -0.002987 0.337462 0.005514
  In 0.004638 0.496061 0.172926
  In 0.170617 0.335953 0.162020
  In 0.166965 0.500437 -0.001569
  As 0.085062 0.418922 0.083596
  As 0.085979 0.583819 0.249933
  As 0.250290 0.416361 0.249315
  As 0.248416 0.583212 0.082103
  In -0.002551 0.335184 0.338863
  In 0.010511 0.501960 0.501093
  In 0.168676 0.333016 0.489234
  In 0.167623 0.500046 0.331486
  As 0.085212 0.418295 0.413692
  As 0.084817 0.588452 0.585463
  Sb 0.249321 0.419164 0.582235
  As 0.246843 0.582494 0.416797
  In 0.006428 0.337571 0.671759
  In 0.002069 0.501388 0.834873
  In 0.170905 0.336451 0.831849
  In 0.163607 0.506341 0.670097
  As 0.086522 0.420717 0.753411
  As 0.087503 0.583981 0.914634
  As 0.251502 0.416906 0.917498
  As 0.249268 0.585496 0.750653
  In 0.011306 0.668024 0.000098
  In 0.000877 0.834533 0.164810
  In 0.166678 0.665705 0.165971
  In 0.166328 0.833878 0.000922
  As 0.086734 0.751718 0.085322
  As 0.085208 0.915595 0.246953
  As 0.245038 0.751055 0.248868
  As 0.248505 0.917870 0.081329
  In 0.004289 0.671512 0.327798
  In 0.005273 0.828212 0.501286
  In 0.167019 0.667703 0.499464
  In 0.166606 0.835539 0.333619
  As 0.086439 0.749847 0.414681
  As 0.083939 0.912344 0.585269
  As 0.248090 0.750902 0.582699
  As 0.248926 0.917317 0.418354
  In -0.000441 0.668340 0.667580
  In 0.005009 0.838343 0.828446
  In 0.168212 0.668994 0.833227
  In 0.167379 0.831887 0.669013
  As 0.084378 0.749887 0.749933
  As 0.085129 0.915461 0.917587
  As 0.248214 0.751390 0.918559
  As 0.249601 0.915914 0.751579
  In 0.334293 0.000765 0.002228
  In 0.335239 0.166174 0.167212
  In 0.503989 0.006417 0.163431
  In 0.498712 0.166093 -0.000964
  As 0.417039 0.085023 0.082516
  As 0.416498 0.248897 0.250387
  As 0.584432 0.086177 0.249702
  As 0.578351 0.245341 0.087449
  In 0.329990 0.002282 0.336733
  In 0.329576 0.163877 0.495963
  In 0.494447 0.003860 0.501935
  In 0.499397 0.166348 0.332695
  As 0.415177 0.084734 0.415321
  Sb 0.417079 0.248677 0.582497
  As 0.584093 0.080328 0.581820
  As 0.582893 0.248538 0.414271
  In 0.333509 -0.001271 0.670092
  In 0.333009 0.164654 0.835687
  In 0.497761 -0.000753 0.834896
  In 0.500027 0.156612 0.666217
  As 0.415051 0.081161 0.752770
  As 0.414464 0.247843 0.917331
  As 0.581016 0.080854 0.917989
  Sb 0.583564 0.248369 0.748903
  In 0.332369 0.330510 -0.000726
  In 0.329221 0.496406 0.162401
  In 0.497291 0.331675 0.167572
  In 0.488603 0.500424 0.001291
  As 0.412990 0.412513 0.083665
  Sb 0.415434 0.583523 0.249274
  As 0.580918 0.411417 0.252408
  Sb 0.581399 0.585424 0.082638
  In 0.335689 0.334239 0.331104
  In 0.337380 0.503518 0.494179
  In 0.504121 0.335232 0.495300
  In 0.503468 0.497193 0.336162
  As 0.418125 0.416404 0.414942
  As 0.416052 0.581436 0.582677
  As 0.584695 0.417227 0.579843
  As 0.583440 0.582029 0.419495
  In 0.332085 0.332729 0.672997
  In 0.330394 0.501425 0.833124
  In 0.491230 0.331911 0.832564
  In 0.494766 0.492824 0.662208
  As 0.412618 0.417627 0.751376
  As 0.409316 0.583278 0.918279
  Sb 0.579808 0.415984 0.918215
  Sb 0.580957 0.580836 0.747561
  In 0.330224 0.667766 0.000548
  In 0.325795 0.831079 0.162880
  In 0.498486 0.677198 0.166492
  In 0.494569 0.839253 0.005385
  As 0.411834 0.752544 0.082401
  Sb 0.414815 0.918254 0.246395
  As 0.585895 0.751874 0.249528
  As 0.583369 0.919399 0.083821
  In 0.322790 0.667099 0.332712
  In 0.330585 0.837799 0.504486
  In 0.502287 0.662748 0.504590
  In 0.502768 0.831486 0.329788
  Sb 0.414747 0.748674 0.418374
  As 0.415618 0.919351 0.585247
  As 0.583267 0.752440 0.580524
  Sb 0.585144 0.919743 0.417213
  In 0.329003 0.663496 0.661684
  In 0.329540 0.836716 0.838105
  In 0.495042 0.662848 0.838481
  In 0.503473 0.837532 0.663120
  Sb 0.414480 0.751295 0.748634
  As 0.414675 0.918604 0.918604
  Sb 0.583102 0.753118 0.919839
  As 0.581623 0.920875 0.748935
  In 0.666162 0.001343 0.000641
  In 0.667197 0.166721 0.167176
  In 0.832802 -0.001061 0.166401
  In 0.837032 0.161313 0.005265
  As 0.749089 0.082093 0.085358
  As 0.750583 0.247590 0.250662
  As 0.914629 0.082864 0.246854
  As 0.918170 0.247618 0.084392
  In 0.670814 0.004847 0.328783
  In 0.663148 0.166213 0.498461
  In 0.827129 0.002950 0.500368
  In 0.833673 0.165270 0.332156
  As 0.749117 0.086382 0.415554
  As 0.746595 0.247749 0.580950
  As 0.911430 0.081622 0.582647
  As 0.913290 0.249104 0.415289
  In 0.666443 -0.001423 0.665562
  In 0.666900 0.156671 0.833353
  In 0.834573 -0.000634 0.833138
  In 0.827093 0.163082 0.663374
  As 0.749981 0.078496 0.748711
  Sb 0.750883 0.246814 0.917980
  As 0.916095 0.077652 0.920875
  Sb 0.915035 0.248570 0.750100
  In 0.659865 0.325604 0.006384
  In 0.660955 0.495668 0.171960
  In 0.838544 0.326675 0.171663
  In 0.834387 0.499936 -0.005141
  Sb 0.751300 0.413208 0.085622
  Sb 0.749396 0.585259 0.252691
  As 0.918480 0.413196 0.251967
  Sb 0.920668 0.583621 0.084298
  In 0.666626 0.329786 0.332212
  In 0.668933 0.500287 0.498961
  In 0.828307 0.328039 0.496628
  In 0.833723 0.491922 0.334230
  As 0.747315 0.413078 0.415938
  As 0.749332 0.585320 0.581598
  Sb 0.916523 0.417065 0.581831
  Sb 0.919649 0.584640 0.415806
  In 0.669686 0.336781 0.662417
  In 0.671742 0.499167 0.833352
  In 0.833002 0.340841 0.833380
  In 0.831407 0.506095 0.667849
  As 0.751295 0.419461 0.747594
  As 0.753021 0.582758 0.914834
  As 0.918902 0.418595 0.916324
  As 0.919764 0.582562 0.749793
  In 0.676735 0.667571 0.000186
  In 0.665467 0.836009 0.166250
  In 0.835079 0.675086 0.166608
  In 0.830855 0.839883 0.002882
  As 0.751020 0.755209 0.084616
  As 0.749825 0.916794 0.248128
  As 0.918745 0.754149 0.248810
  As 0.917732 0.918462 0.084264
  In 0.661850 0.669809 0.339464
  In 0.671527 0.832715 0.503032
  In 0.831922 0.670505 0.502515
  In 0.829053 0.830230 0.330200
  As 0.749179 0.750426 0.417877
  As 0.751076 0.917422 0.584651
  As 0.918637 0.750741 0.583716
  Sb 0.916289 0.915697 0.416347
  In 0.664407 0.668669 0.659382
  In 0.665977 0.842761 0.832617
  In 0.836529 0.661799 0.832531
  In 0.839906 0.838575 0.663444
  Sb 0.751452 0.752325 0.747970
  As 0.749792 0.921227 0.917309
  Sb 0.919431 0.753131 0.917371
  As 0.918854 0.919463 0.749016
K_POINTS automatic
  2 2 2 0 0 0

HUBBARD (atomic)
U In-5p -0.9725
U Ga-4p -3.2649999999999997
U As-4p 3.26
U Sb-5p 3.16
