&CONTROL
  calculation = 'scf',
  etot_conv_thr = 0.0001,
  forc_conv_thr = 0.00045,
  outdir = './tmp_In0.0Ga1.0As0.25Sb0.75_cube_3x3x3.6',
  prefix = 'In0.0Ga1.0As0.25Sb0.75_cube_3x3x3.6',
  pseudo_dir = '/work/i254/i254/gentles/data/pseudos/',
  restart_mode = 'from_scratch',
  verbosity = 'low',
/
&SYSTEM
  celldm(1) = 34.039611660294675,
  ecutwfc = 120,
  ibrav = 1,
  nat = 216,
  nbnd = 2160,
  ntyp = 4,
/
&ELECTRONS
  conv_thr = 1d-05,
  mixing_beta = 0.65,
/
&IONS
/
&CELL
  cell_dofree = 'all',
/
ATOMIC_SPECIES
  As  74.9216 As.pbe.NC-SR.standard.v0.5.UPF
  Ga  69.7230 Ga.pbe.NC-SR.standard.v0.5.UPF
  In  114.8180 In.pbe.NC-SR.standard.v0.5.UPF
  Sb  121.7600 Sb.pbe.NC-SR.standard.v0.5.UPF
ATOMIC_POSITIONS crystal
  Ga 0.005990 -0.005245 -0.007672
  Ga 0.001771 0.164148 0.165981
  Ga 0.161922 -0.004372 0.173153
  Ga 0.170626 0.159159 -0.006058
  Sb 0.085325 0.078987 0.081177
  Sb 0.086242 0.250767 0.250309
  Sb 0.248160 0.082261 0.254512
  Sb 0.247274 0.250545 0.079985
  Ga 0.006137 -0.005335 0.331244
  Ga 0.007283 0.169177 0.504548
  Ga 0.170228 -0.006394 0.495397
  Ga 0.172509 0.172882 0.340465
  Sb 0.086544 0.082819 0.416824
  As 0.085363 0.251199 0.582515
  Sb 0.248620 0.083507 0.581765
  As 0.248585 0.252304 0.423587
  Ga -0.000240 -0.005748 0.671179
  Ga -0.001566 0.172001 0.829099
  Ga 0.170751 -0.005514 0.835245
  Ga 0.161612 0.169835 0.661769
  Sb 0.085024 0.082211 0.751544
  Sb 0.085434 0.251436 0.917764
  As 0.248247 0.078043 0.914114
  Sb 0.250128 0.251621 0.747395
  Ga 0.006261 0.339101 0.006519
  Ga 0.012465 0.501105 0.167169
  Ga 0.163026 0.338832 0.161963
  Ga 0.169258 0.494078 -0.000106
  As 0.086819 0.419920 0.082786
  As 0.084934 0.583956 0.252363
  Sb 0.247768 0.419785 0.252207
  Sb 0.247494 0.582605 0.088048
  Ga 0.003123 0.334938 0.335008
  Ga -0.002203 0.507357 0.497425
  Ga 0.169855 0.331857 0.505901
  Ga 0.166405 0.509860 0.335750
  Sb 0.086584 0.420091 0.419976
  Sb 0.086770 0.587293 0.581708
  As 0.250511 0.414860 0.581201
  As 0.249154 0.585904 0.416239
  Ga 0.003779 0.325744 0.665244
  Ga 0.002288 0.501076 0.830247
  Ga 0.172504 0.337924 0.837258
  Ga 0.170741 0.494874 0.659332
  Sb 0.086556 0.414527 0.747883
  Sb 0.086251 0.582624 0.916599
  As 0.250178 0.418802 0.916135
  Sb 0.249151 0.583771 0.745918
  Ga 0.002708 0.667576 0.000845
  Ga 0.005835 0.837147 0.174011
  Ga 0.165503 0.667850 0.176591
  Ga 0.162068 0.837113 -0.006290
  Sb 0.085615 0.751920 0.086402
  As 0.086879 0.914752 0.253344
  As 0.247637 0.747632 0.253447
  Sb 0.246210 0.915723 0.084072
  Ga 0.002017 0.658802 0.333787
  Ga -0.001599 0.826749 0.503422
  Ga 0.177156 0.668679 0.500643
  Ga 0.169666 0.834544 0.330908
  Sb 0.086859 0.747558 0.416032
  Sb 0.085527 0.912325 0.584595
  As 0.249923 0.751297 0.585955
  As 0.246921 0.911939 0.416168
  Ga 0.003753 0.676919 0.664891
  Ga 0.007832 0.837316 0.826940
  Ga 0.160702 0.669559 0.825973
  Ga 0.170462 0.828914 0.669788
  As 0.084528 0.753668 0.747152
  As 0.085406 0.916056 0.911104
  Sb 0.247263 0.751791 0.910537
  As 0.247402 0.913273 0.750192
  Ga 0.327531 0.001334 -0.004023
  Ga 0.330577 0.166560 0.167146
  Ga 0.496363 -0.001531 0.164599
  Ga 0.498687 0.169343 -0.000327
  Sb 0.413224 0.083859 0.080538
  Sb 0.413012 0.249994 0.253130
  Sb 0.584662 0.081273 0.248583
  Sb 0.584574 0.250527 0.085060
  Ga 0.327355 -0.005606 0.340783
  Ga 0.332075 0.175480 0.502473
  Ga 0.498248 -0.002387 0.501911
  Ga 0.499241 0.163732 0.333951
  Sb 0.412990 0.083589 0.420144
  As 0.412568 0.254535 0.582285
  Sb 0.579903 0.083519 0.585135
  Sb 0.582517 0.250871 0.417178
  Ga 0.324562 -0.004887 0.671049
  Ga 0.325897 0.160983 0.835858
  Ga 0.498741 0.000353 0.832112
  Ga 0.490014 0.171764 0.661187
  Sb 0.411799 0.082633 0.748814
  Sb 0.411389 0.251254 0.914604
  Sb 0.582228 0.083943 0.916666
  Sb 0.578794 0.250197 0.747455
  Ga 0.327497 0.338953 -0.004250
  Ga 0.337376 0.504547 0.172964
  Ga 0.496952 0.333971 0.166721
  Ga 0.499231 0.501869 -0.000973
  Sb 0.413893 0.419186 0.082843
  As 0.412698 0.585383 0.253291
  Sb 0.581137 0.418247 0.250413
  Sb 0.581187 0.585927 0.084851
  Ga 0.324850 0.330401 0.339901
  Ga 0.321640 0.500850 0.498551
  Ga 0.494268 0.331856 0.503304
  Ga 0.492975 0.504782 0.330592
  Sb 0.411327 0.418421 0.418048
  Sb 0.409543 0.582749 0.584355
  Sb 0.578579 0.417958 0.586135
  Sb 0.581734 0.585188 0.414861
  Ga 0.335260 0.338173 0.661809
  Ga 0.330254 0.494569 0.831355
  Ga 0.490972 0.336734 0.826133
  Ga 0.490481 0.498142 0.672689
  As 0.410165 0.416449 0.748290
  Sb 0.414087 0.583989 0.912947
  Sb 0.579665 0.415920 0.913392
  Sb 0.580000 0.585577 0.750250
  Ga 0.327919 0.665778 -0.001516
  Ga 0.326066 0.826080 0.170105
  Ga 0.494319 0.662622 0.173953
  Ga 0.501545 0.828325 -0.003275
  Sb 0.414632 0.746916 0.084294
  Sb 0.411549 0.914641 0.251304
  Sb 0.584214 0.749511 0.252959
  Sb 0.583812 0.914461 0.082766
  Ga 0.327548 0.663113 0.331492
  Ga 0.321679 0.831785 0.500404
  Ga 0.496112 0.664909 0.500523
  Ga 0.497143 0.831912 0.335238
  Sb 0.409395 0.748253 0.417314
  Sb 0.409816 0.913761 0.583864
  Sb 0.581997 0.749710 0.582330
  Sb 0.585304 0.914059 0.417264
  Ga 0.333068 0.675621 0.666564
  Ga 0.332519 0.833708 0.823670
  Ga 0.496056 0.675522 0.831422
  Ga 0.493662 0.829109 0.668746
  As 0.414220 0.751822 0.748669
  Sb 0.414265 0.914725 0.914554
  As 0.578844 0.750109 0.914308
  Sb 0.581539 0.913716 0.750109
  Ga 0.667648 0.001211 0.000385
  Ga 0.671813 0.171365 0.172052
  Ga 0.831078 -0.006724 0.171778
  Ga 0.836416 0.163823 -0.000090
  Sb 0.751709 0.082909 0.087510
  As 0.751150 0.250969 0.251904
  Sb 0.917335 0.080224 0.250954
  Sb 0.918040 0.251816 0.085421
  Ga 0.670609 -0.006483 0.328573
  Ga 0.666088 0.164852 0.500230
  Ga 0.837452 0.003078 0.498921
  Ga 0.831995 0.170523 0.330262
  Sb 0.750228 0.082795 0.413426
  Sb 0.751600 0.249187 0.584410
  Sb 0.921377 0.084418 0.586852
  Sb 0.919409 0.249288 0.417781
  Ga 0.667171 -0.002248 0.665960
  Ga 0.666016 0.165648 0.831527
  Ga 0.839195 -0.008645 0.826452
  Ga 0.839352 0.170516 0.671048
  Sb 0.753306 0.081421 0.749001
  Sb 0.753205 0.248799 0.913884
  Sb 0.919117 0.080579 0.911912
  As 0.921021 0.250220 0.746947
  Ga 0.666638 0.333416 -0.002657
  Ga 0.667269 0.502460 0.168285
  Ga 0.830662 0.330979 0.173145
  Ga 0.834846 0.498943 0.000909
  Sb 0.749879 0.415726 0.085116
  Sb 0.752883 0.585987 0.253633
  Sb 0.920751 0.420038 0.250778
  Sb 0.921495 0.581607 0.084601
  Ga 0.670171 0.331220 0.329814
  Ga 0.663783 0.499364 0.498567
  Ga 0.834715 0.333945 0.500276
  Ga 0.840918 0.507015 0.338879
  Sb 0.752053 0.417837 0.415020
  Sb 0.753155 0.585081 0.577507
  Sb 0.921048 0.416522 0.583408
  As 0.919307 0.587619 0.417913
  Ga 0.666157 0.334004 0.666460
  Ga 0.666536 0.501208 0.833667
  Ga 0.841582 0.328855 0.827591
  Ga 0.835907 0.501644 0.664655
  Sb 0.752803 0.417094 0.749968
  Sb 0.749049 0.585975 0.919251
  Sb 0.920181 0.415797 0.915479
  Sb 0.920285 0.587828 0.746943
  Ga 0.658695 0.673006 -0.003880
  Ga 0.670522 0.836230 0.171406
  Ga 0.835429 0.666969 0.165583
  Ga 0.837223 0.832679 0.000405
  Sb 0.749121 0.750816 0.082161
  As 0.751132 0.913032 0.251637
  Sb 0.918046 0.749966 0.253289
  Sb 0.920972 0.916599 0.084789
  Ga 0.672816 0.672053 0.340085
  Ga 0.673161 0.827933 0.497538
  Ga 0.840489 0.672209 0.496198
  Ga 0.827037 0.832298 0.334707
  As 0.754582 0.750310 0.418424
  Sb 0.755310 0.915235 0.582406
  As 0.918842 0.749575 0.583159
  Sb 0.918232 0.913803 0.416494
  Ga 0.667634 0.665878 0.664294
  Ga 0.662061 0.828711 0.837463
  Ga 0.835151 0.667717 0.833559
  Ga 0.843781 0.832280 0.666154
  Sb 0.751289 0.751267 0.749257
  Sb 0.751296 0.915017 0.915924
  Sb 0.922990 0.752899 0.913398
  As 0.921922 0.912185 0.748276
K_POINTS automatic
  2 2 2 0 0 0

HUBBARD (atomic)
U In-5p -1.0575
U Ga-4p -2.335
U As-4p 5.84
U Sb-5p 4.89
