&CONTROL
  calculation = 'scf',
  etot_conv_thr = 0.0001,
  forc_conv_thr = 0.00045,
  outdir = './tmp_In1.0Ga0.0As0.5Sb0.5_cube_3x3x3.0',
  prefix = 'In1.0Ga0.0As0.5Sb0.5_cube_3x3x3.0',
  pseudo_dir = '/work/i254/i254/gentles/data/pseudos/',
  restart_mode = 'from_scratch',
  verbosity = 'low',
/
&SYSTEM
  celldm(1) = 35.746788141711896,
  ecutwfc = 120,
  ibrav = 1,
  nat = 216,
  nbnd = 2160,
  ntyp = 4,
/
&ELECTRONS
  conv_thr = 1d-05,
  mixing_beta = 0.65,
/
&IONS
/
&CELL
  cell_dofree = 'all',
/
ATOMIC_SPECIES
  As  74.9216 As.pbe.NC-SR.standard.v0.5.UPF
  Ga  69.7230 Ga.pbe.NC-SR.standard.v0.5.UPF
  In  114.8180 In.pbe.NC-SR.standard.v0.5.UPF
  Sb  121.7600 Sb.pbe.NC-SR.standard.v0.5.UPF
ATOMIC_POSITIONS crystal
  In -0.001862 0.011063 0.002253
  In 0.007433 0.167628 0.168833
  In 0.171284 0.006604 0.166093
  In 0.161600 0.165670 0.005610
  As 0.084005 0.084289 0.086780
  As 0.084703 0.249558 0.252492
  As 0.251287 0.085202 0.253351
  Sb 0.250336 0.250054 0.088764
  In -0.006020 -0.004015 0.340418
  In -0.001812 0.170389 0.503130
  In 0.165855 -0.006046 0.499160
  In 0.169983 0.170253 0.331850
  Sb 0.083133 0.084868 0.417652
  As 0.083631 0.248518 0.584509
  Sb 0.248714 0.084567 0.580916
  As 0.251564 0.251126 0.414502
  In 0.001441 0.005472 0.660798
  In -0.006535 0.161396 0.826965
  In 0.161094 0.006706 0.825531
  In 0.163158 0.168886 0.668884
  As 0.079122 0.086235 0.745020
  Sb 0.079582 0.246790 0.913080
  Sb 0.248335 0.086941 0.915152
  As 0.249933 0.248027 0.747697
  In -0.004560 0.336828 -0.005660
  In -0.008518 0.499878 0.167269
  In 0.166985 0.335012 0.176987
  In 0.166744 0.498787 0.002132
  Sb 0.080671 0.415173 0.086508
  Sb 0.083633 0.580279 0.251805
  As 0.253957 0.414091 0.255084
  Sb 0.255053 0.581245 0.086376
  In -0.004766 0.326961 0.329521
  In 0.000522 0.495997 0.500209
  In 0.170122 0.327155 0.503699
  In 0.174990 0.496709 0.334942
  Sb 0.084859 0.410036 0.414869
  Sb 0.085931 0.583329 0.582734
  As 0.251283 0.414469 0.581022
  As 0.255305 0.578593 0.415622
  In -0.000173 0.325275 0.667069
  In -0.006889 0.494545 0.834403
  In 0.171090 0.327525 0.829827
  In 0.174428 0.497818 0.665652
  Sb 0.084071 0.414102 0.748835
  Sb 0.080272 0.581926 0.915227
  Sb 0.252763 0.416274 0.914935
  As 0.253923 0.581499 0.746968
  In -0.010322 0.665230 -0.001303
  In -0.000519 0.836690 0.167309
  In 0.165916 0.667420 0.165979
  In 0.170856 0.839526 0.004327
  Sb 0.080034 0.750508 0.080466
  Sb 0.086376 0.920528 0.252554
  Sb 0.252612 0.749896 0.252553
  As 0.251635 0.920406 0.087164
  In 0.000843 0.668939 0.335597
  In -0.008038 0.837405 0.504639
  In 0.173269 0.662177 0.493112
  In 0.173490 0.838628 0.339813
  Sb 0.083558 0.754830 0.421127
  As 0.078349 0.919069 0.580112
  Sb 0.251657 0.750859 0.581088
  As 0.254496 0.920444 0.418536
  In -0.006608 0.671069 0.660440
  In -0.005023 0.829065 0.838685
  In 0.169222 0.661233 0.825739
  In 0.159713 0.837468 0.659816
  Sb 0.080713 0.750373 0.748127
  Sb 0.081530 0.921416 0.917820
  Sb 0.249570 0.747326 0.917051
  Sb 0.248652 0.919128 0.744717
  In 0.330908 -0.000728 0.002001
  In 0.335270 0.167607 0.177829
  In 0.501913 -0.006047 0.167843
  In 0.500409 0.173520 0.000668
  Sb 0.417691 0.084927 0.086728
  As 0.417098 0.251377 0.254991
  Sb 0.583431 0.083614 0.252052
  As 0.583035 0.253854 0.082442
  In 0.333085 0.001823 0.333663
  In 0.333035 0.166135 0.490072
  In 0.501688 0.002238 0.496941
  In 0.492545 0.165583 0.335784
  As 0.415470 0.080792 0.415547
  Sb 0.416469 0.250868 0.579207
  As 0.585401 0.080052 0.579600
  Sb 0.582134 0.248678 0.419108
  In 0.338922 -0.001099 0.659516
  In 0.336109 0.174373 0.832131
  In 0.506634 -0.001836 0.828932
  In 0.505966 0.163413 0.659494
  Sb 0.419362 0.084333 0.747759
  As 0.419403 0.251681 0.916179
  Sb 0.586431 0.084987 0.917754
  Sb 0.584640 0.252142 0.748147
  In 0.337827 0.329553 -0.001407
  In 0.335957 0.495857 0.176248
  In 0.503070 0.328475 0.172101
  In 0.503821 0.500856 -0.002411
  Sb 0.420519 0.415023 0.085639
  As 0.419915 0.578371 0.253142
  As 0.579765 0.417001 0.249248
  As 0.582155 0.579618 0.082969
  In 0.335988 0.333804 0.336373
  In 0.334652 0.496332 0.498966
  In 0.500329 0.342466 0.498704
  In 0.501593 0.498920 0.334355
  As 0.417557 0.418738 0.415240
  As 0.416711 0.577830 0.580176
  As 0.585279 0.419251 0.579305
  As 0.582281 0.581358 0.417771
  In 0.326944 0.331425 0.665752
  In 0.336079 0.507389 0.832876
  In 0.501916 0.335714 0.839458
  In 0.501824 0.497730 0.659133
  Sb 0.416516 0.416592 0.748935
  As 0.420734 0.581972 0.916505
  As 0.585439 0.415423 0.920834
  Sb 0.585213 0.580805 0.750155
  In 0.340651 0.662755 -0.002513
  In 0.335026 0.840803 0.169550
  In 0.501161 0.657364 0.169271
  In 0.508461 0.834344 0.005670
  Sb 0.419638 0.749788 0.087068
  As 0.416187 0.920426 0.252086
  Sb 0.583622 0.749723 0.252726
  As 0.586576 0.915752 0.087315
  In 0.337361 0.658684 0.333380
  In 0.336795 0.841231 0.500474
  In 0.500040 0.659300 0.500678
  In 0.500274 0.841764 0.333640
  Sb 0.418520 0.750430 0.417137
  As 0.422021 0.920410 0.579463
  Sb 0.586076 0.750150 0.581841
  As 0.584061 0.920593 0.416364
  In 0.335570 0.659106 0.662770
  In 0.332399 0.833418 0.831983
  In 0.498510 0.664846 0.835360
  In 0.501747 0.840074 0.663539
  Sb 0.417557 0.749666 0.745975
  Sb 0.420620 0.916100 0.917940
  Sb 0.588670 0.749708 0.915334
  As 0.585790 0.917101 0.745777
  In 0.666270 -0.008813 -0.000121
  In 0.662174 0.170209 0.161011
  In 0.827095 -0.002242 0.173798
  In 0.833078 0.166915 -0.006350
  Sb 0.748717 0.081645 0.081111
  Sb 0.748528 0.251348 0.250449
  Sb 0.915840 0.084568 0.253186
  Sb 0.916667 0.250102 0.083389
  In 0.670239 0.000655 0.339358
  In 0.670189 0.161622 0.502979
  In 0.833515 0.001626 0.503271
  In 0.831273 0.166555 0.342140
  As 0.751678 0.081674 0.421373
  As 0.749963 0.246162 0.581649
  As 0.916476 0.086413 0.581720
  As 0.916333 0.248286 0.417637
  In 0.664627 -0.003305 0.661167
  In 0.673131 0.172656 0.835722
  In 0.832845 -0.000095 0.839436
  In 0.835762 0.169216 0.662996
  Sb 0.750850 0.082903 0.747961
  As 0.751968 0.253361 0.918214
  As 0.915318 0.084899 0.915132
  As 0.915505 0.247258 0.748810
  In 0.668230 0.333767 0.001577
  In 0.660677 0.494526 0.162851
  In 0.831403 0.339709 0.165679
  In 0.830195 0.498844 -0.000702
  As 0.748095 0.417621 0.082191
  Sb 0.746249 0.580064 0.249890
  As 0.916072 0.413841 0.249143
  As 0.912639 0.579886 0.081453
  In 0.660016 0.337404 0.330156
  In 0.664224 0.506041 0.502777
  In 0.830645 0.324146 0.498012
  In 0.836155 0.494302 0.330443
  Sb 0.747352 0.416456 0.418471
  As 0.747303 0.587766 0.582162
  Sb 0.913257 0.411533 0.583613
  Sb 0.913958 0.584038 0.418873
  In 0.666926 0.333429 0.656288
  In 0.667184 0.496475 0.840652
  In 0.836488 0.328961 0.834009
  In 0.826962 0.503990 0.660881
  Sb 0.749566 0.414329 0.748871
  As 0.749130 0.581219 0.918570
  As 0.910992 0.416157 0.916309
  Sb 0.911461 0.585502 0.749367
  In 0.666424 0.658082 0.002106
  In 0.668781 0.838556 0.170483
  In 0.834164 0.662336 0.163271
  In 0.830827 0.834220 -0.008812
  Sb 0.749437 0.750885 0.081924
  As 0.747788 0.917527 0.256731
  Sb 0.913305 0.751666 0.251317
  Sb 0.912458 0.919935 0.081532
  In 0.666620 0.666653 0.342987
  In 0.667898 0.838852 0.495580
  In 0.827473 0.671716 0.502498
  In 0.827864 0.835870 0.338930
  As 0.747986 0.752603 0.419305
  As 0.749332 0.917325 0.580751
  As 0.910479 0.752722 0.581967
  As 0.910847 0.916568 0.421276
  In 0.673443 0.668516 0.669516
  In 0.670196 0.836873 0.825651
  In 0.825967 0.669514 0.836805
  In 0.828510 0.832798 0.663071
  As 0.751637 0.752223 0.749525
  As 0.748009 0.915731 0.913004
  As 0.910799 0.748029 0.916427
  Sb 0.916427 0.917528 0.748361
K_POINTS automatic
  2 2 2 0 0 0

HUBBARD (atomic)
U In-5p -1.0150000000000001
U Ga-4p -2.8
U As-4p 3.26
U Sb-5p 3.16
