&CONTROL
  calculation = 'scf',
  etot_conv_thr = 0.0001,
  forc_conv_thr = 0.00045,
  outdir = './tmp_In0.0Ga1.0As0.25Sb0.75_cube_3x3x3.2',
  prefix = 'In0.0Ga1.0As0.25Sb0.75_cube_3x3x3.2',
  pseudo_dir = '/work/i254/i254/gentles/data/pseudos/',
  restart_mode = 'from_scratch',
  verbosity = 'low',
/
&SYSTEM
  celldm(1) = 34.03395258490908,
  ecutwfc = 120,
  ibrav = 1,
  nat = 216,
  nbnd = 2160,
  ntyp = 4,
/
&ELECTRONS
  conv_thr = 1d-05,
  mixing_beta = 0.65,
/
&IONS
/
&CELL
  cell_dofree = 'all',
/
ATOMIC_SPECIES
  As  74.9216 As.pbe.NC-SR.standard.v0.5.UPF
  Ga  69.7230 Ga.pbe.NC-SR.standard.v0.5.UPF
  In  114.8180 In.pbe.NC-SR.standard.v0.5.UPF
  Sb  121.7600 Sb.pbe.NC-SR.standard.v0.5.UPF
ATOMIC_POSITIONS crystal
  Ga -0.003870 0.005560 -0.004045
  Ga -0.004239 0.169320 0.160202
  Ga 0.171557 0.005708 0.170524
  Ga 0.177705 0.168792 -0.000697
  Sb 0.086447 0.086627 0.080596
  Sb 0.085946 0.246355 0.246590
  As 0.255708 0.083122 0.247546
  As 0.254257 0.246895 0.082686
  Ga 0.001019 -0.001012 0.333790
  Ga 0.000993 0.166589 0.500648
  Ga 0.167500 -0.001518 0.499707
  Ga 0.174625 0.160319 0.327036
  Sb 0.086147 0.083634 0.415307
  Sb 0.083484 0.251473 0.585589
  Sb 0.253774 0.084644 0.580661
  Sb 0.253702 0.246823 0.415571
  Ga -0.004810 -0.006398 0.673464
  Ga -0.004927 0.162428 0.839650
  Ga 0.173288 0.006671 0.841946
  Ga 0.166535 0.164894 0.667129
  Sb 0.082164 0.081306 0.754084
  Sb 0.084537 0.248413 0.917558
  As 0.254829 0.085098 0.921554
  Sb 0.250287 0.249296 0.751513
  Ga -0.005151 0.327326 0.002501
  Ga -0.003182 0.504421 0.161169
  Ga 0.172140 0.326246 0.160298
  Ga 0.166454 0.500729 -0.000942
  Sb 0.082102 0.414312 0.082037
  Sb 0.083490 0.586394 0.247298
  Sb 0.253663 0.413461 0.245327
  Sb 0.252749 0.582461 0.084887
  Ga 0.002632 0.333136 0.330548
  Ga -0.000444 0.500235 0.503793
  Ga 0.169099 0.331977 0.500362
  Ga 0.166803 0.498576 0.329115
  Sb 0.084234 0.416660 0.417295
  Sb 0.083842 0.584120 0.588655
  Sb 0.251725 0.415242 0.587425
  Sb 0.249776 0.584075 0.413434
  Ga 0.005566 0.338182 0.673654
  Ga 0.003654 0.495879 0.829638
  Ga 0.162500 0.337789 0.830197
  Ga 0.167318 0.499401 0.675996
  As 0.085306 0.418691 0.751314
  Sb 0.083042 0.583620 0.913783
  Sb 0.251420 0.416270 0.917053
  As 0.245814 0.583429 0.751571
  Ga -0.003822 0.661964 0.001591
  Ga 0.001304 0.835845 0.164366
  Ga 0.174507 0.672439 0.170630
  Ga 0.165682 0.834757 -0.000037
  Sb 0.084125 0.747846 0.083310
  Sb 0.086999 0.917217 0.249511
  As 0.253238 0.754049 0.248754
  Sb 0.252234 0.920152 0.084388
  Ga -0.001046 0.668938 0.333152
  Ga -0.006841 0.829341 0.504691
  Ga 0.167137 0.665753 0.501355
  Ga 0.172191 0.830322 0.329574
  Sb 0.083524 0.751326 0.418072
  Sb 0.080743 0.914471 0.585383
  Sb 0.250458 0.749611 0.587541
  Sb 0.253754 0.918722 0.412399
  Ga -0.001620 0.674566 0.667000
  Ga 0.001910 0.832672 0.826175
  Ga 0.163663 0.668036 0.825178
  Ga 0.161550 0.829501 0.672648
  As 0.080792 0.749725 0.748687
  Sb 0.082154 0.918999 0.914949
  Sb 0.247966 0.749377 0.914248
  Sb 0.248600 0.917508 0.753519
  Ga 0.337236 0.008415 0.002500
  Ga 0.331188 0.162011 0.162523
  Ga 0.497657 -0.000162 0.164610
  Ga 0.498269 0.165666 0.010833
  As 0.416811 0.083317 0.086492
  Sb 0.418054 0.244978 0.245465
  As 0.579190 0.080585 0.244258
  As 0.579642 0.249230 0.083324
  Ga 0.339550 0.005806 0.328578
  Ga 0.344942 0.166585 0.496757
  Ga 0.500472 0.009812 0.497561
  Ga 0.500450 0.157066 0.329944
  As 0.419390 0.084003 0.413352
  As 0.420863 0.247373 0.581298
  As 0.579697 0.084725 0.583204
  Sb 0.580182 0.246178 0.417228
  Ga 0.332745 -0.000481 0.667402
  Ga 0.330875 0.164148 0.839777
  Ga 0.500599 0.001477 0.833451
  Ga 0.500307 0.167891 0.660186
  Sb 0.416510 0.085855 0.749508
  Sb 0.416989 0.248841 0.922627
  Sb 0.581246 0.084106 0.921515
  Sb 0.583034 0.251503 0.749655
  Ga 0.333577 0.331711 0.007625
  Ga 0.341621 0.493462 0.159838
  Ga 0.499015 0.330674 0.157853
  Ga 0.498845 0.488451 -0.002230
  As 0.418633 0.411614 0.080422
  Sb 0.415752 0.582966 0.248179
  Sb 0.580606 0.414616 0.246588
  Sb 0.581261 0.580257 0.078737
  Ga 0.336992 0.330717 0.331893
  Ga 0.332737 0.499952 0.499830
  Ga 0.501898 0.331801 0.508730
  Ga 0.498955 0.499004 0.333340
  Sb 0.418652 0.413901 0.420077
  Sb 0.416795 0.582486 0.585065
  As 0.583692 0.415292 0.586018
  Sb 0.583214 0.582163 0.417298
  Ga 0.340685 0.324973 0.663229
  Ga 0.329005 0.504878 0.828509
  Ga 0.502003 0.335282 0.839383
  Ga 0.505770 0.497116 0.664209
  Sb 0.418023 0.416205 0.749428
  Sb 0.418508 0.581570 0.916401
  As 0.582778 0.411906 0.918762
  Sb 0.587119 0.582559 0.754025
  Ga 0.334283 0.667459 -0.000180
  Ga 0.335403 0.838164 0.173343
  Ga 0.501374 0.666414 0.165446
  Ga 0.509961 0.836139 0.001501
  Sb 0.418759 0.754312 0.083883
  As 0.416578 0.922728 0.247976
  Sb 0.582723 0.755049 0.249642
  As 0.582431 0.918877 0.085581
  Ga 0.329139 0.671322 0.327010
  Ga 0.333882 0.834637 0.500723
  Ga 0.499024 0.667914 0.499432
  Ga 0.493940 0.842113 0.328389
  Sb 0.415403 0.752182 0.413146
  Sb 0.418975 0.920432 0.581292
  Sb 0.584646 0.749752 0.584820
  Sb 0.582130 0.922378 0.412989
  Ga 0.329174 0.660247 0.673399
  Ga 0.335247 0.834633 0.836092
  Ga 0.506068 0.670833 0.839874
  Ga 0.498740 0.833348 0.666334
  Sb 0.416967 0.747782 0.752749
  Sb 0.419513 0.918989 0.920473
  As 0.585294 0.753946 0.916370
  Sb 0.584322 0.915570 0.750494
  Ga 0.662154 -0.004107 0.004053
  Ga 0.654642 0.166789 0.165102
  Ga 0.826351 -0.002503 0.170534
  Ga 0.838137 0.164663 -0.000885
  Sb 0.746484 0.084356 0.083971
  Sb 0.746576 0.247358 0.246390
  Sb 0.915706 0.082210 0.248551
  As 0.915369 0.246305 0.080164
  Ga 0.663973 0.001844 0.321046
  Ga 0.660769 0.161971 0.504555
  Ga 0.831669 -0.000796 0.499343
  Ga 0.831010 0.165632 0.332960
  Sb 0.745036 0.081525 0.415036
  Sb 0.746151 0.250809 0.584921
  Sb 0.916672 0.081891 0.585143
  Sb 0.917073 0.249638 0.414891
  Ga 0.660939 0.004238 0.662756
  Ga 0.666919 0.165217 0.834883
  Ga 0.839618 -0.002234 0.833933
  Ga 0.833773 0.169388 0.667781
  Sb 0.751248 0.081523 0.750021
  Sb 0.749190 0.250473 0.918409
  As 0.914595 0.082469 0.916682
  Sb 0.916922 0.252987 0.754306
  Ga 0.657517 0.329807 0.000675
  Ga 0.667439 0.499015 0.165169
  Ga 0.834830 0.326194 0.159013
  Ga 0.837078 0.505391 0.001966
  Sb 0.749729 0.414559 0.079369
  Sb 0.750861 0.584535 0.248069
  Sb 0.915462 0.415673 0.246045
  As 0.916671 0.583527 0.081613
  Ga 0.664793 0.331620 0.332913
  Ga 0.661108 0.496242 0.505988
  Ga 0.833342 0.331534 0.500845
  Ga 0.831649 0.499642 0.334328
  Sb 0.747266 0.416154 0.418992
  Sb 0.749270 0.583555 0.586084
  Sb 0.915091 0.415531 0.588574
  Sb 0.916472 0.585078 0.419223
  Ga 0.665976 0.341438 0.668625
  Ga 0.665545 0.490250 0.837411
  Ga 0.825471 0.338764 0.830181
  Ga 0.827246 0.496828 0.673380
  As 0.745450 0.417417 0.751736
  Sb 0.747852 0.583491 0.915959
  Sb 0.915586 0.416624 0.915713
  Sb 0.916503 0.583913 0.749596
  Ga 0.660615 0.670922 -0.005371
  Ga 0.665417 0.842279 0.165641
  Ga 0.836648 0.663706 0.159924
  Ga 0.834102 0.833331 -0.000963
  Sb 0.747258 0.751124 0.082105
  As 0.745066 0.919125 0.247061
  Sb 0.914206 0.752492 0.246679
  Sb 0.914797 0.920305 0.083003
  Ga 0.667278 0.668628 0.334042
  Ga 0.665056 0.835753 0.499016
  Ga 0.837760 0.671803 0.507744
  Ga 0.825066 0.838721 0.325821
  Sb 0.751806 0.752110 0.417989
  Sb 0.749638 0.916316 0.586353
  As 0.915011 0.752722 0.589404
  Sb 0.913821 0.914515 0.414735
  Ga 0.672648 0.671080 0.673180
  Ga 0.668965 0.826833 0.832263
  Ga 0.828975 0.669320 0.829598
  Ga 0.835105 0.831846 0.673616
  As 0.752071 0.751412 0.751122
  Sb 0.749196 0.915927 0.916018
  Sb 0.917509 0.749732 0.914256
  As 0.916382 0.913056 0.752617
K_POINTS automatic
  2 2 2 0 0 0

HUBBARD (atomic)
U In-5p -1.0575
U Ga-4p -2.335
U As-4p 5.84
U Sb-5p 4.89
