&CONTROL
  calculation = 'scf',
  etot_conv_thr = 0.0001,
  forc_conv_thr = 0.00045,
  outdir = './tmp_In0.0Ga1.0As0.25Sb0.75_cube_3x3x3.3',
  prefix = 'In0.0Ga1.0As0.25Sb0.75_cube_3x3x3.3',
  pseudo_dir = '/work/i254/i254/gentles/data/pseudos/',
  restart_mode = 'from_scratch',
  verbosity = 'low',
/
&SYSTEM
  celldm(1) = 34.028789628431745,
  ecutwfc = 120,
  ibrav = 1,
  nat = 216,
  nbnd = 2160,
  ntyp = 4,
/
&ELECTRONS
  conv_thr = 1d-05,
  mixing_beta = 0.65,
/
&IONS
/
&CELL
  cell_dofree = 'all',
/
ATOMIC_SPECIES
  As  74.9216 As.pbe.NC-SR.standard.v0.5.UPF
  Ga  69.7230 Ga.pbe.NC-SR.standard.v0.5.UPF
  In  114.8180 In.pbe.NC-SR.standard.v0.5.UPF
  Sb  121.7600 Sb.pbe.NC-SR.standard.v0.5.UPF
ATOMIC_POSITIONS crystal
  Ga 0.000871 0.000904 0.000311
  Ga -0.009754 0.167134 0.169691
  Ga 0.167300 0.003024 0.167468
  Ga 0.173095 0.171957 0.003844
  Sb 0.081997 0.088169 0.084640
  Sb 0.084293 0.246432 0.251144
  Sb 0.248775 0.088109 0.253965
  As 0.252214 0.249375 0.084361
  Ga -0.000263 0.012404 0.332515
  Ga -0.000567 0.160329 0.499193
  Ga 0.162729 0.006634 0.494515
  Ga 0.167118 0.169640 0.345235
  As 0.082485 0.086975 0.417152
  Sb 0.084304 0.251395 0.580799
  Sb 0.252526 0.086537 0.580799
  As 0.251973 0.252725 0.420200
  Ga -0.008075 0.004016 0.659745
  Ga 0.001120 0.167344 0.833826
  Ga 0.166019 0.000465 0.833874
  Ga 0.166683 0.166786 0.666242
  Sb 0.080329 0.081957 0.747545
  Sb 0.084595 0.252253 0.918541
  Sb 0.253140 0.084909 0.915155
  Sb 0.252822 0.251485 0.747250
  Ga -0.006336 0.326644 0.007626
  Ga -0.000573 0.497085 0.168081
  Ga 0.172199 0.325877 0.164757
  Ga 0.166281 0.498426 -0.000342
  Sb 0.083895 0.411953 0.084945
  Sb 0.081216 0.584303 0.250975
  Sb 0.252002 0.411992 0.252741
  Sb 0.250654 0.583317 0.083265
  Ga 0.001801 0.331648 0.334527
  Ga -0.004566 0.502746 0.495507
  Ga 0.176357 0.334515 0.500374
  Ga 0.167352 0.499234 0.332219
  Sb 0.084981 0.416447 0.418524
  Sb 0.084817 0.578450 0.583620
  As 0.255023 0.413884 0.581649
  Sb 0.254531 0.578593 0.418931
  Ga 0.004867 0.339166 0.668340
  Ga 0.004695 0.495196 0.827798
  Ga 0.164183 0.338160 0.828108
  Ga 0.170467 0.488223 0.664380
  As 0.086186 0.416443 0.746982
  Sb 0.084147 0.583583 0.914596
  Sb 0.251399 0.416190 0.915593
  Sb 0.252720 0.577973 0.747812
  Ga 0.003001 0.669902 0.002043
  Ga 0.004189 0.829059 0.163725
  Ga 0.161870 0.670332 0.162447
  Ga 0.164270 0.827575 0.005026
  As 0.082710 0.749361 0.082874
  Sb 0.081191 0.919799 0.249976
  Sb 0.248911 0.749267 0.249955
  Sb 0.251253 0.916976 0.082293
  Ga -0.006986 0.660951 0.339808
  Ga -0.003114 0.834953 0.500136
  Ga 0.168496 0.664544 0.500895
  Ga 0.164675 0.834077 0.333777
  Sb 0.080870 0.747813 0.418115
  Sb 0.082976 0.919870 0.581888
  Sb 0.253312 0.748667 0.583600
  Sb 0.249464 0.920035 0.415351
  Ga 0.000710 0.665594 0.665979
  Ga -0.000394 0.835058 0.831982
  Ga 0.169941 0.666412 0.829822
  Ga 0.169933 0.835630 0.666464
  Sb 0.084369 0.751352 0.748605
  Sb 0.084433 0.914691 0.918572
  Sb 0.252994 0.749448 0.916917
  Sb 0.254337 0.919699 0.751583
  Ga 0.338805 -0.003329 -0.005732
  Ga 0.330393 0.170821 0.165520
  Ga 0.505713 -0.000859 0.164578
  Ga 0.505990 0.171210 0.005673
  Sb 0.417839 0.084004 0.083670
  Sb 0.416976 0.252319 0.251913
  Sb 0.586798 0.086019 0.252329
  As 0.584650 0.250330 0.086275
  Ga 0.336892 0.003682 0.332862
  Ga 0.334970 0.177898 0.500557
  Ga 0.503949 0.005515 0.504832
  Ga 0.504608 0.172107 0.337290
  Sb 0.418579 0.088648 0.419837
  As 0.419823 0.252158 0.580363
  As 0.581054 0.088372 0.580639
  As 0.584056 0.250687 0.417727
  Ga 0.338994 0.005340 0.669126
  Ga 0.340291 0.163432 0.826797
  Ga 0.492605 0.001249 0.831118
  Ga 0.495849 0.164840 0.660086
  As 0.419272 0.084609 0.746094
  Sb 0.417582 0.248294 0.917881
  Sb 0.581433 0.082807 0.916480
  Sb 0.579573 0.248721 0.746715
  Ga 0.329061 0.328005 0.002591
  Ga 0.334012 0.497813 0.168744
  Ga 0.503396 0.330372 0.162994
  Ga 0.499218 0.506804 -0.000370
  Sb 0.417112 0.416034 0.080898
  Sb 0.420506 0.580098 0.251795
  Sb 0.583179 0.412997 0.252638
  As 0.581742 0.581030 0.082921
  Ga 0.334847 0.332897 0.344184
  Ga 0.339694 0.494270 0.505051
  Ga 0.502703 0.331808 0.499764
  Ga 0.495068 0.490591 0.342222
  As 0.417079 0.411186 0.424227
  As 0.419268 0.579428 0.581971
  As 0.580708 0.415664 0.579701
  Sb 0.581120 0.580441 0.421243
  Ga 0.336187 0.332671 0.657194
  Ga 0.340626 0.502473 0.837475
  Ga 0.497780 0.334239 0.832009
  Ga 0.501781 0.499052 0.656978
  Sb 0.417390 0.418326 0.744991
  As 0.419393 0.582371 0.917058
  Sb 0.581073 0.417636 0.917917
  Sb 0.583353 0.583886 0.745427
  Ga 0.339401 0.661842 -0.004837
  Ga 0.334977 0.831787 0.166126
  Ga 0.505472 0.661796 0.162737
  Ga 0.501676 0.843623 -0.002470
  Sb 0.421138 0.749928 0.079634
  Sb 0.419258 0.917231 0.249098
  Sb 0.583614 0.750987 0.248083
  As 0.581468 0.919380 0.081978
  Ga 0.335633 0.665372 0.334423
  Ga 0.333745 0.837243 0.500777
  Ga 0.500318 0.664660 0.509105
  Ga 0.500927 0.833761 0.335056
  Sb 0.418509 0.749836 0.420886
  Sb 0.421052 0.917073 0.585951
  As 0.584983 0.745803 0.584658
  Sb 0.584999 0.918357 0.419475
  Ga 0.338981 0.658492 0.661802
  Ga 0.339580 0.837503 0.837319
  Ga 0.496409 0.661829 0.836128
  Ga 0.506250 0.825959 0.663613
  Sb 0.417151 0.747119 0.749494
  As 0.419232 0.919162 0.914862
  Sb 0.581858 0.750063 0.916445
  Sb 0.582169 0.917467 0.748280
  Ga 0.662393 -0.002953 0.003715
  Ga 0.666914 0.174593 0.168103
  Ga 0.838598 0.005154 0.173499
  Ga 0.835691 0.170891 0.005611
  Sb 0.749853 0.084756 0.086366
  As 0.748443 0.247378 0.251876
  As 0.913925 0.087495 0.252991
  As 0.912598 0.248741 0.089347
  Ga 0.672521 0.005138 0.340140
  Ga 0.660996 0.165171 0.495132
  Ga 0.829995 0.009956 0.499151
  Ga 0.826251 0.163382 0.330270
  As 0.748191 0.087637 0.417903
  Sb 0.745952 0.247900 0.580656
  As 0.915249 0.084561 0.578736
  Sb 0.915221 0.244560 0.414256
  Ga 0.659038 0.007433 0.660693
  Ga 0.666943 0.166351 0.831257
  Ga 0.829986 0.001060 0.833779
  Ga 0.838068 0.164795 0.659374
  Sb 0.750395 0.084508 0.744984
  Sb 0.748099 0.250599 0.918637
  Sb 0.915377 0.085321 0.917887
  Sb 0.918406 0.250869 0.747050
  Ga 0.660609 0.330311 0.004748
  Ga 0.661307 0.501619 0.164384
  Ga 0.830104 0.325316 0.171055
  Ga 0.833662 0.499467 -0.002192
  Sb 0.748867 0.414355 0.085039
  Sb 0.748269 0.581998 0.250664
  Sb 0.914398 0.413904 0.252465
  Sb 0.917065 0.583774 0.083549
  Ga 0.668037 0.325028 0.335051
  Ga 0.665220 0.498184 0.508119
  Ga 0.834116 0.330254 0.499912
  Ga 0.834252 0.501363 0.338004
  Sb 0.748623 0.415451 0.419381
  As 0.746445 0.583326 0.582545
  Sb 0.915355 0.418614 0.583054
  As 0.913152 0.580747 0.418035
  Ga 0.658542 0.335890 0.660071
  Ga 0.665256 0.499045 0.831403
  Ga 0.830511 0.332719 0.830130
  Ga 0.826564 0.505075 0.660965
  Sb 0.746509 0.416411 0.744739
  Sb 0.746771 0.584638 0.916292
  Sb 0.918225 0.413108 0.915181
  Sb 0.914257 0.582231 0.749175
  Ga 0.660116 0.662675 0.005023
  Ga 0.661134 0.840628 0.162112
  Ga 0.831297 0.667666 0.167964
  Ga 0.832116 0.834155 0.000707
  Sb 0.745938 0.750953 0.084002
  Sb 0.748907 0.919828 0.250331
  Sb 0.917461 0.749307 0.251755
  Sb 0.917336 0.917218 0.085935
  Ga 0.664798 0.665940 0.334395
  Ga 0.661874 0.827835 0.504673
  Ga 0.830902 0.655800 0.499980
  Ga 0.832418 0.835039 0.334104
  Sb 0.749984 0.747393 0.419421
  Sb 0.746163 0.919315 0.582692
  Sb 0.912136 0.747088 0.582522
  Sb 0.915566 0.924738 0.415877
  Ga 0.670247 0.669395 0.662287
  Ga 0.669405 0.827581 0.826826
  Ga 0.827760 0.670582 0.829144
  Ga 0.826351 0.830224 0.669226
  As 0.748116 0.748309 0.746163
  Sb 0.746610 0.914784 0.916114
  Sb 0.915570 0.750807 0.915735
  Sb 0.913348 0.917307 0.748105
K_POINTS automatic
  2 2 2 0 0 0

HUBBARD (atomic)
U In-5p -1.0575
U Ga-4p -2.335
U As-4p 5.84
U Sb-5p 4.89
