&CONTROL
  calculation = 'scf',
  etot_conv_thr = 0.0001,
  forc_conv_thr = 0.00045,
  outdir = './tmp_In0.0Ga1.0As0.5Sb0.5_cube_3x3x3.5',
  prefix = 'In0.0Ga1.0As0.5Sb0.5_cube_3x3x3.5',
  pseudo_dir = '/work/i254/i254/gentles/data/pseudos/',
  restart_mode = 'from_scratch',
  verbosity = 'low',
/
&SYSTEM
  celldm(1) = 33.44848653631497,
  ecutwfc = 120,
  ibrav = 1,
  nat = 216,
  nbnd = 2160,
  ntyp = 4,
/
&ELECTRONS
  conv_thr = 1d-05,
  mixing_beta = 0.65,
/
&IONS
/
&CELL
  cell_dofree = 'all',
/
ATOMIC_SPECIES
  As  74.9216 As.pbe.NC-SR.standard.v0.5.UPF
  Ga  69.7230 Ga.pbe.NC-SR.standard.v0.5.UPF
  In  114.8180 In.pbe.NC-SR.standard.v0.5.UPF
  Sb  121.7600 Sb.pbe.NC-SR.standard.v0.5.UPF
ATOMIC_POSITIONS crystal
  Ga -0.002936 0.002655 0.003504
  Ga 0.006672 0.159104 0.163064
  Ga 0.166203 -0.000722 0.157630
  Ga 0.165979 0.165616 -0.003941
  As 0.085682 0.082279 0.077497
  Sb 0.084282 0.248173 0.251860
  Sb 0.247785 0.081676 0.251666
  As 0.245227 0.245984 0.080812
  Ga 0.002220 -0.000599 0.342513
  Ga -0.000895 0.162489 0.499013
  Ga 0.159898 -0.003995 0.499713
  Ga 0.167114 0.166701 0.343801
  As 0.083071 0.082438 0.420507
  Sb 0.082489 0.253175 0.582236
  Sb 0.248049 0.084404 0.581335
  As 0.251553 0.250700 0.419432
  Ga -0.000612 -0.006072 0.663070
  Ga -0.003150 0.171770 0.837307
  Ga 0.168697 0.001885 0.840465
  Ga 0.167454 0.171040 0.670058
  Sb 0.080902 0.083096 0.752189
  As 0.084780 0.249616 0.914494
  As 0.249870 0.083692 0.917379
  As 0.247874 0.250460 0.749493
  Ga 0.010752 0.335890 -0.002467
  Ga 0.007911 0.498403 0.165121
  Ga 0.167296 0.331332 0.159977
  Ga 0.166129 0.502743 0.006642
  As 0.087396 0.416812 0.083164
  As 0.079438 0.585623 0.246666
  Sb 0.247463 0.418071 0.250128
  As 0.245216 0.586167 0.085731
  Ga -0.004970 0.328550 0.338893
  Ga -0.003922 0.505568 0.504953
  Ga 0.174978 0.335092 0.499427
  Ga 0.158154 0.506368 0.328939
  Sb 0.081059 0.418619 0.419089
  As 0.079757 0.582031 0.587138
  As 0.249953 0.415059 0.584423
  Sb 0.249031 0.580474 0.421220
  Ga -0.003650 0.338267 0.667645
  Ga 0.000956 0.502241 0.823731
  Ga 0.160331 0.329772 0.826833
  Ga 0.161051 0.493889 0.661505
  As 0.081135 0.415689 0.746363
  Sb 0.082549 0.585925 0.915153
  Sb 0.243633 0.415046 0.916235
  Sb 0.247231 0.584508 0.743587
  Ga -0.001235 0.675929 -0.002798
  Ga -0.003014 0.826893 0.164411
  Ga 0.158033 0.664797 0.163159
  Ga 0.164661 0.833609 0.008578
  As 0.080648 0.749817 0.083346
  Sb 0.081757 0.916051 0.248225
  Sb 0.247599 0.750403 0.245038
  As 0.250050 0.917891 0.079723
  Ga -0.003946 0.663207 0.329860
  Ga -0.004841 0.834950 0.504945
  Ga 0.164501 0.663922 0.511083
  Ga 0.170164 0.837373 0.336486
  Sb 0.081781 0.748372 0.419319
  As 0.080783 0.913929 0.582214
  As 0.245973 0.749663 0.585730
  As 0.245860 0.918472 0.420176
  Ga -0.000712 0.665436 0.667200
  Ga -0.002575 0.829041 0.827051
  Ga 0.162272 0.673326 0.826491
  Ga 0.160228 0.829926 0.663219
  As 0.079088 0.750138 0.745489
  Sb 0.079339 0.914062 0.918984
  Sb 0.249289 0.751030 0.918818
  Sb 0.248542 0.914359 0.750602
  Ga 0.330667 -0.001569 -0.003118
  Ga 0.329156 0.165897 0.160056
  Ga 0.491001 0.004820 0.162208
  Ga 0.493524 0.161623 0.004059
  As 0.408985 0.081869 0.080527
  Sb 0.413815 0.248860 0.252745
  Sb 0.583041 0.081278 0.250694
  Sb 0.582544 0.251320 0.083297
  Ga 0.331834 -0.000862 0.342837
  Ga 0.335093 0.170049 0.496752
  Ga 0.494585 0.002460 0.493812
  Ga 0.500427 0.165895 0.341250
  As 0.414302 0.085651 0.417578
  As 0.411096 0.249733 0.582343
  Sb 0.578599 0.084846 0.583725
  As 0.580000 0.252874 0.419473
  Ga 0.334452 0.004350 0.670054
  Ga 0.325692 0.163466 0.829287
  Ga 0.489273 -0.000908 0.833273
  Ga 0.487697 0.168082 0.667027
  As 0.411304 0.084853 0.751613
  Sb 0.412295 0.246934 0.915421
  Sb 0.579650 0.079999 0.916687
  Sb 0.582353 0.251953 0.746645
  Ga 0.325910 0.327732 0.002461
  Ga 0.328087 0.506688 0.163870
  Ga 0.499612 0.336358 0.171049
  Ga 0.506219 0.506203 0.004808
  Sb 0.414016 0.418375 0.082177
  Sb 0.420394 0.585393 0.248547
  Sb 0.587046 0.421605 0.253891
  As 0.587770 0.587752 0.083048
  Ga 0.331150 0.335227 0.341946
  Ga 0.336860 0.494651 0.507747
  Ga 0.494718 0.329611 0.500950
  Ga 0.497754 0.498735 0.342793
  As 0.415380 0.414763 0.422658
  As 0.416245 0.584235 0.583717
  Sb 0.582701 0.420391 0.581219
  As 0.582932 0.581291 0.415457
  Ga 0.327488 0.329529 0.663309
  Ga 0.330971 0.501116 0.833668
  Ga 0.499821 0.335663 0.835043
  Ga 0.501425 0.511396 0.666960
  Sb 0.415579 0.418157 0.746056
  Sb 0.417973 0.586917 0.917987
  Sb 0.588627 0.422143 0.915903
  As 0.586382 0.586216 0.750775
  Ga 0.330884 0.666149 0.008620
  Ga 0.333036 0.834190 0.156394
  Ga 0.505897 0.672394 0.160693
  Ga 0.496205 0.828080 -0.006595
  As 0.417283 0.750025 0.080363
  Sb 0.413882 0.915015 0.250649
  As 0.585812 0.746131 0.248205
  Sb 0.579360 0.912146 0.085068
  Ga 0.332111 0.667047 0.333168
  Ga 0.320239 0.833411 0.501863
  Ga 0.500673 0.656694 0.500024
  Ga 0.504498 0.825946 0.327662
  Sb 0.415743 0.750261 0.420009
  Sb 0.412846 0.915795 0.582559
  Sb 0.584147 0.744232 0.585850
  Sb 0.585006 0.915741 0.412749
  Ga 0.336165 0.671292 0.661696
  Ga 0.340109 0.831171 0.833452
  Ga 0.504092 0.669806 0.828483
  Ga 0.495056 0.827579 0.668461
  As 0.416929 0.747503 0.749546
  As 0.414299 0.915513 0.916391
  As 0.582746 0.747555 0.914014
  Sb 0.581409 0.913093 0.752675
  Ga 0.667258 -0.004997 -0.000571
  Ga 0.668934 0.167282 0.168171
  Ga 0.835472 -0.012874 0.166223
  Ga 0.840259 0.161410 -0.006161
  Sb 0.754082 0.079766 0.083376
  Sb 0.751956 0.255591 0.252099
  Sb 0.918045 0.079023 0.251251
  Sb 0.921443 0.250932 0.081129
  Ga 0.676377 -0.005916 0.327194
  Ga 0.661969 0.173057 0.498335
  Ga 0.842083 0.000139 0.501371
  Ga 0.840231 0.173225 0.336974
  Sb 0.752314 0.084944 0.417215
  Sb 0.755670 0.253733 0.582483
  As 0.922404 0.080498 0.582795
  As 0.918240 0.249966 0.422007
  Ga 0.667451 -0.000762 0.667539
  Ga 0.665694 0.166249 0.832874
  Ga 0.846237 -0.002447 0.831106
  Ga 0.846260 0.166644 0.663907
  Sb 0.757349 0.083855 0.749556
  Sb 0.752670 0.251373 0.915621
  As 0.921073 0.081865 0.915326
  As 0.919355 0.251739 0.748185
  Ga 0.672443 0.339476 0.004037
  Ga 0.671991 0.507840 0.164435
  Ga 0.831019 0.342386 0.160699
  Ga 0.826929 0.503367 -0.003071
  As 0.749689 0.424132 0.082317
  As 0.749098 0.583812 0.253208
  Sb 0.916267 0.420611 0.252356
  Sb 0.916829 0.585393 0.084210
  Ga 0.667589 0.335613 0.343767
  Ga 0.668956 0.501473 0.492030
  Ga 0.839988 0.341039 0.498198
  Ga 0.829181 0.505725 0.338559
  As 0.753403 0.418844 0.417991
  Sb 0.754007 0.583481 0.583076
  As 0.917821 0.420298 0.584859
  As 0.917165 0.584355 0.417303
  Ga 0.673213 0.341960 0.669349
  Ga 0.673153 0.506104 0.827707
  Ga 0.834235 0.333313 0.823369
  Ga 0.838611 0.498260 0.669046
  As 0.754323 0.421377 0.749461
  As 0.750124 0.585846 0.913125
  Sb 0.917846 0.417766 0.912786
  As 0.917225 0.584853 0.748534
  Ga 0.664068 0.664070 -0.006369
  Ga 0.668512 0.830508 0.174254
  Ga 0.832877 0.666059 0.177943
  Ga 0.844373 0.831556 -0.000370
  Sb 0.752036 0.747524 0.082826
  As 0.755401 0.910614 0.249411
  As 0.917246 0.749592 0.251305
  As 0.920457 0.913335 0.083554
  Ga 0.661453 0.660848 0.329388
  Ga 0.667875 0.830809 0.500270
  Ga 0.843848 0.668818 0.500914
  Ga 0.840682 0.835920 0.331595
  Sb 0.752771 0.747149 0.412825
  Sb 0.755405 0.913233 0.585640
  As 0.919457 0.749420 0.587060
  As 0.919045 0.916448 0.419378
  Ga 0.671729 0.665909 0.675240
  Ga 0.669612 0.823432 0.834514
  Ga 0.836301 0.665013 0.834909
  Ga 0.837661 0.825754 0.673186
  As 0.754620 0.745489 0.754364
  Sb 0.756440 0.913164 0.914606
  As 0.918042 0.750351 0.912291
  As 0.919954 0.912678 0.747083
K_POINTS automatic
  2 2 2 0 0 0

HUBBARD (atomic)
U In-5p -1.0150000000000001
U Ga-4p -2.8
U As-4p 5.84
U Sb-5p 4.89
