&CONTROL
  calculation = 'scf',
  etot_conv_thr = 0.0001,
  forc_conv_thr = 0.00045,
  outdir = './tmp_In0.0Ga1.0As0.5Sb0.5_cube_3x3x3.9',
  prefix = 'In0.0Ga1.0As0.5Sb0.5_cube_3x3x3.9',
  pseudo_dir = '/work/i254/i254/gentles/data/pseudos/',
  restart_mode = 'from_scratch',
  verbosity = 'low',
/
&SYSTEM
  celldm(1) = 33.44541920004645,
  ecutwfc = 120,
  ibrav = 1,
  nat = 216,
  nbnd = 2160,
  ntyp = 4,
/
&ELECTRONS
  conv_thr = 1d-05,
  mixing_beta = 0.65,
/
&IONS
/
&CELL
  cell_dofree = 'all',
/
ATOMIC_SPECIES
  As  74.9216 As.pbe.NC-SR.standard.v0.5.UPF
  Ga  69.7230 Ga.pbe.NC-SR.standard.v0.5.UPF
  In  114.8180 In.pbe.NC-SR.standard.v0.5.UPF
  Sb  121.7600 Sb.pbe.NC-SR.standard.v0.5.UPF
ATOMIC_POSITIONS crystal
  Ga -0.007925 -0.000793 0.003496
  Ga -0.011673 0.169131 0.166125
  Ga 0.171799 0.004670 0.172450
  Ga 0.167083 0.166415 0.000599
  Sb 0.080115 0.084184 0.086877
  Sb 0.081391 0.249550 0.250767
  As 0.253520 0.084802 0.252066
  Sb 0.254176 0.251190 0.082918
  Ga -0.000311 0.012899 0.333474
  Ga -0.004171 0.164026 0.492365
  Ga 0.166663 0.009449 0.500320
  Ga 0.172045 0.166381 0.336010
  As 0.085105 0.088153 0.415742
  Sb 0.084481 0.249336 0.576976
  As 0.252672 0.083560 0.582901
  As 0.251155 0.250025 0.417229
  Ga -0.008567 0.000679 0.663765
  Ga -0.001567 0.161596 0.839403
  Ga 0.171405 -0.003372 0.829966
  Ga 0.172185 0.164513 0.661149
  Sb 0.083469 0.081923 0.747324
  Sb 0.080280 0.253495 0.921307
  Sb 0.254836 0.083766 0.915369
  Sb 0.254776 0.250850 0.750501
  Ga -0.004778 0.337835 0.009134
  Ga 0.000152 0.498186 0.168563
  Ga 0.162838 0.337072 0.162717
  Ga 0.173236 0.494103 0.005345
  As 0.082096 0.419215 0.084637
  As 0.079124 0.581227 0.249616
  Sb 0.250274 0.419207 0.249908
  As 0.250778 0.579273 0.085114
  Ga -0.002807 0.336103 0.336596
  Ga 0.001181 0.500090 0.489455
  Ga 0.170899 0.337339 0.493188
  Ga 0.156450 0.499386 0.331572
  As 0.082694 0.415975 0.414070
  Sb 0.083558 0.583872 0.579317
  As 0.253411 0.416191 0.578027
  Sb 0.250300 0.579191 0.414930
  Ga 0.001916 0.330925 0.668242
  Ga -0.004736 0.493144 0.841288
  Ga 0.173074 0.335787 0.840920
  Ga 0.172136 0.496450 0.658600
  Sb 0.086933 0.416757 0.751861
  Sb 0.086800 0.580702 0.919700
  As 0.255005 0.414147 0.921486
  Sb 0.252378 0.581603 0.750004
  Ga -0.004856 0.658564 0.005990
  Ga -0.006947 0.834495 0.166765
  Ga 0.166373 0.654429 0.168253
  Ga 0.168882 0.829265 -0.001999
  Sb 0.082458 0.746091 0.086553
  Sb 0.080618 0.919021 0.251711
  Sb 0.250712 0.745339 0.250765
  Sb 0.254272 0.919015 0.082845
  Ga -0.000061 0.666793 0.328626
  Ga 0.004872 0.829224 0.492056
  Ga 0.163815 0.671271 0.492683
  Ga 0.161786 0.828308 0.336194
  As 0.080788 0.746366 0.411429
  Sb 0.084555 0.917023 0.582934
  Sb 0.249493 0.749294 0.583985
  Sb 0.249743 0.920878 0.413746
  Ga 0.006794 0.670551 0.672235
  Ga -0.000566 0.834595 0.824271
  Ga 0.167536 0.674812 0.833671
  Ga 0.170433 0.835658 0.675411
  As 0.086431 0.753665 0.751371
  Sb 0.081099 0.916681 0.916071
  As 0.250350 0.752651 0.916014
  As 0.253450 0.917901 0.752692
  Ga 0.345000 0.002510 -0.000639
  Ga 0.335249 0.159844 0.167067
  Ga 0.497711 -0.000326 0.162697
  Ga 0.501288 0.169560 0.001902
  As 0.420346 0.085017 0.082725
  Sb 0.418556 0.250379 0.250159
  Sb 0.584003 0.084228 0.250436
  As 0.583651 0.252379 0.083621
  Ga 0.339036 0.004367 0.327677
  Ga 0.329991 0.164316 0.497566
  Ga 0.493320 0.006941 0.493030
  Ga 0.499837 0.167661 0.341169
  As 0.412569 0.086938 0.414137
  Sb 0.418760 0.249898 0.581553
  Sb 0.581833 0.084284 0.582675
  As 0.582195 0.253949 0.412349
  Ga 0.331343 0.004570 0.671709
  Ga 0.344887 0.168586 0.835388
  Ga 0.499588 0.001629 0.832677
  Ga 0.499831 0.165309 0.675579
  As 0.417762 0.083040 0.753067
  As 0.421319 0.250924 0.918328
  As 0.578296 0.086663 0.917437
  As 0.580305 0.249230 0.753494
  Ga 0.341858 0.335806 -0.002448
  Ga 0.339826 0.502017 0.163128
  Ga 0.502845 0.337015 0.162651
  Ga 0.500461 0.499685 0.010787
  As 0.418549 0.416612 0.084377
  As 0.422587 0.578761 0.246883
  As 0.581806 0.415309 0.247544
  As 0.583504 0.578797 0.089613
  Ga 0.333862 0.333259 0.340076
  Ga 0.339194 0.495640 0.500633
  Ga 0.503712 0.336121 0.493730
  Ga 0.499112 0.496675 0.331047
  As 0.418953 0.416247 0.415702
  As 0.420587 0.578186 0.580504
  As 0.578652 0.414596 0.581695
  As 0.578225 0.579694 0.414849
  Ga 0.333551 0.340146 0.663307
  Ga 0.334307 0.489964 0.834647
  Ga 0.496235 0.329562 0.830481
  Ga 0.495206 0.493268 0.663198
  As 0.415835 0.413762 0.748823
  Sb 0.413237 0.580162 0.921691
  Sb 0.581637 0.413104 0.920530
  Sb 0.580308 0.582488 0.746538
  Ga 0.322626 0.666915 0.001262
  Ga 0.337625 0.837331 0.173113
  Ga 0.505285 0.661753 0.170067
  Ga 0.499133 0.841198 0.000853
  Sb 0.416915 0.748582 0.084898
  As 0.419554 0.920360 0.248730
  As 0.581741 0.750142 0.247996
  As 0.580346 0.919126 0.084341
  Ga 0.340576 0.656861 0.327720
  Ga 0.333658 0.834714 0.499508
  Ga 0.503842 0.661564 0.501986
  Ga 0.500738 0.833598 0.324725
  Sb 0.419378 0.747217 0.414742
  Sb 0.417750 0.920199 0.585104
  As 0.582169 0.750831 0.582016
  Sb 0.584349 0.917077 0.415027
  Ga 0.340332 0.659523 0.660101
  Ga 0.332507 0.839249 0.838264
  Ga 0.496722 0.666214 0.835573
  Ga 0.507773 0.835057 0.667055
  Sb 0.415683 0.752833 0.748903
  As 0.420071 0.919880 0.915799
  Sb 0.583098 0.750973 0.919925
  As 0.581661 0.919159 0.750847
  Ga 0.656092 0.004723 0.001568
  Ga 0.666155 0.176850 0.167513
  Ga 0.834890 -0.001865 0.170588
  Ga 0.835936 0.170266 -0.002290
  Sb 0.749435 0.086213 0.084720
  As 0.749964 0.253513 0.248342
  As 0.913421 0.086269 0.249133
  As 0.911721 0.253615 0.084845
  Ga 0.674740 -0.004682 0.327387
  Ga 0.660200 0.172332 0.492365
  Ga 0.830164 0.000242 0.507014
  Ga 0.835179 0.172410 0.326646
  Sb 0.751773 0.086120 0.414165
  Sb 0.746363 0.250167 0.581494
  As 0.915522 0.083145 0.579814
  As 0.916618 0.248605 0.411604
  Ga 0.665166 -0.006291 0.667807
  Ga 0.662064 0.171130 0.839419
  Ga 0.840753 0.002670 0.835890
  Ga 0.834171 0.162463 0.661203
  Sb 0.748393 0.083472 0.752382
  As 0.748692 0.248365 0.921075
  As 0.916989 0.083721 0.920818
  Sb 0.913947 0.247324 0.753542
  Ga 0.671156 0.328280 0.005509
  Ga 0.664657 0.493001 0.164867
  Ga 0.831895 0.334522 0.168851
  Ga 0.835138 0.493642 0.009170
  As 0.749899 0.412724 0.086620
  Sb 0.748248 0.582190 0.249866
  As 0.918251 0.415031 0.249235
  As 0.916257 0.577537 0.088287
  Ga 0.662401 0.330498 0.325314
  Ga 0.656856 0.496814 0.497414
  Ga 0.835396 0.326981 0.493146
  Ga 0.840472 0.498938 0.330289
  Sb 0.748150 0.414865 0.412196
  Sb 0.747102 0.582302 0.577517
  Sb 0.918453 0.414925 0.578174
  As 0.921435 0.581909 0.408766
  Ga 0.655737 0.331799 0.666918
  Ga 0.664570 0.499541 0.834977
  Ga 0.830770 0.331416 0.844867
  Ga 0.832052 0.498246 0.664501
  Sb 0.747950 0.412711 0.751624
  Sb 0.749543 0.580219 0.923754
  As 0.913772 0.413861 0.924836
  Sb 0.916710 0.582986 0.753177
  Ga 0.661497 0.661218 0.009266
  Ga 0.661640 0.837035 0.168834
  Ga 0.840636 0.664846 0.168544
  Ga 0.833865 0.839601 0.005787
  Sb 0.749904 0.750113 0.087904
  As 0.750856 0.914459 0.245120
  As 0.917817 0.749127 0.248580
  As 0.914040 0.918388 0.087280
  Ga 0.656181 0.665797 0.333896
  Ga 0.667066 0.833504 0.507473
  Ga 0.840048 0.659633 0.491497
  Ga 0.832050 0.832068 0.322804
  Sb 0.749003 0.749290 0.414923
  As 0.748181 0.917705 0.585982
  Sb 0.918289 0.750245 0.582462
  Sb 0.914918 0.919151 0.413669
  Ga 0.662446 0.671543 0.660174
  Ga 0.662352 0.839456 0.830900
  Ga 0.829292 0.668530 0.836556
  Ga 0.833589 0.842718 0.665708
  Sb 0.747974 0.754058 0.747431
  Sb 0.747927 0.922288 0.918672
  Sb 0.917463 0.752410 0.918721
  As 0.915614 0.919876 0.748891
K_POINTS automatic
  2 2 2 0 0 0

HUBBARD (atomic)
U In-5p -1.0150000000000001
U Ga-4p -2.8
U As-4p 5.84
U Sb-5p 4.89
