&CONTROL
  calculation = 'scf',
  etot_conv_thr = 0.0001,
  forc_conv_thr = 0.00045,
  outdir = './tmp_In0.0Ga1.0As0.75Sb0.25_cube_3x3x3.9',
  prefix = 'In0.0Ga1.0As0.75Sb0.25_cube_3x3x3.9',
  pseudo_dir = '/work/i254/i254/gentles/data/pseudos/',
  restart_mode = 'from_scratch',
  verbosity = 'low',
/
&SYSTEM
  celldm(1) = 32.84915623226588,
  ecutwfc = 120,
  ibrav = 1,
  nat = 216,
  nbnd = 2160,
  ntyp = 4,
/
&ELECTRONS
  conv_thr = 1d-05,
  mixing_beta = 0.65,
/
&IONS
/
&CELL
  cell_dofree = 'all',
/
ATOMIC_SPECIES
  As  74.9216 As.pbe.NC-SR.standard.v0.5.UPF
  Ga  69.7230 Ga.pbe.NC-SR.standard.v0.5.UPF
  In  114.8180 In.pbe.NC-SR.standard.v0.5.UPF
  Sb  121.7600 Sb.pbe.NC-SR.standard.v0.5.UPF
ATOMIC_POSITIONS crystal
  Ga 0.000687 -0.008491 -0.004772
  Ga 0.002865 0.178360 0.168531
  Ga 0.173315 -0.002454 0.164794
  Ga 0.177806 0.167175 -0.000766
  Sb 0.084098 0.084045 0.082063
  As 0.085519 0.258802 0.249814
  Sb 0.256714 0.086335 0.251356
  As 0.254079 0.253237 0.083369
  Ga -0.003238 -0.005837 0.338018
  Ga 0.000855 0.177842 0.501307
  Ga 0.178434 -0.000014 0.501197
  Ga 0.166933 0.176807 0.331971
  Sb 0.085307 0.085022 0.418336
  As 0.086888 0.253192 0.583439
  As 0.253445 0.085908 0.584731
  As 0.250290 0.252145 0.417486
  Ga 0.003798 -0.000280 0.675209
  Ga 0.003891 0.168426 0.824285
  Ga 0.168882 0.000379 0.833743
  Ga 0.168593 0.167275 0.665467
  As 0.089046 0.084200 0.749539
  Sb 0.086085 0.253282 0.917371
  As 0.253705 0.082987 0.914291
  As 0.253009 0.248764 0.748289
  Ga -0.002614 0.340690 0.003859
  Ga 0.005117 0.497416 0.171738
  Ga 0.168787 0.336115 0.164519
  Ga 0.166620 0.499367 -0.000021
  As 0.084908 0.418356 0.084044
  As 0.089946 0.580439 0.250010
  As 0.249782 0.417251 0.249017
  As 0.248933 0.579292 0.084984
  Ga 0.000413 0.337051 0.333628
  Ga 0.006244 0.496218 0.504969
  Ga 0.169100 0.335165 0.500171
  Ga 0.169568 0.499123 0.334504
  As 0.085934 0.416607 0.417419
  As 0.086297 0.584225 0.583478
  As 0.250608 0.416674 0.583405
  As 0.249270 0.584368 0.416726
  Ga -0.002814 0.330192 0.661989
  Ga -0.003136 0.503648 0.838005
  Ga 0.177703 0.335428 0.832311
  Ga 0.171975 0.504083 0.662572
  Sb 0.083873 0.418481 0.749209
  As 0.084414 0.582424 0.916617
  As 0.253367 0.418972 0.917819
  As 0.252361 0.583383 0.748249
  Ga 0.006499 0.670102 -0.003451
  Ga -0.000437 0.829228 0.156794
  Ga 0.168796 0.665095 0.166366
  Ga 0.166753 0.835929 0.002893
  As 0.087406 0.748532 0.081948
  Sb 0.085526 0.910979 0.250075
  As 0.249732 0.746849 0.251869
  As 0.253013 0.916831 0.082096
  Ga 0.012307 0.663354 0.332801
  Ga -0.001782 0.827165 0.496861
  Ga 0.167692 0.666510 0.501132
  Ga 0.172861 0.827319 0.339878
  As 0.086878 0.747824 0.418567
  Sb 0.086893 0.912862 0.584423
  As 0.252422 0.747315 0.584018
  As 0.256305 0.913533 0.418960
  Ga 0.001269 0.664946 0.665937
  Ga 0.001935 0.830984 0.833522
  Ga 0.162856 0.660360 0.827765
  Ga 0.172477 0.826275 0.671709
  As 0.082584 0.746636 0.749358
  As 0.086400 0.914032 0.914498
  Sb 0.249701 0.747883 0.914421
  As 0.250506 0.917648 0.749868
  Ga 0.333892 0.000872 -0.002112
  Ga 0.341080 0.171760 0.161293
  Ga 0.494586 -0.002975 0.162701
  Ga 0.499705 0.167310 -0.000528
  As 0.417072 0.083459 0.079425
  As 0.415855 0.253296 0.249315
  Sb 0.577754 0.086906 0.250821
  As 0.578573 0.252825 0.084308
  Ga 0.340534 -0.003548 0.339308
  Ga 0.332541 0.168082 0.499841
  Ga 0.497981 -0.001587 0.501547
  Ga 0.491955 0.172477 0.338463
  As 0.416312 0.084057 0.421274
  As 0.414840 0.250055 0.582112
  As 0.578552 0.082616 0.581962
  As 0.581750 0.249695 0.416642
  Ga 0.332235 0.000687 0.666994
  Ga 0.335115 0.166922 0.831831
  Ga 0.496963 0.002915 0.833035
  Ga 0.493037 0.163709 0.661931
  As 0.414918 0.082945 0.749025
  As 0.414782 0.250601 0.918422
  As 0.579336 0.081828 0.917232
  Sb 0.580713 0.250674 0.750015
  Ga 0.334726 0.335875 0.000968
  Ga 0.333722 0.498960 0.167569
  Ga 0.498312 0.335937 0.167893
  Ga 0.499561 0.501087 0.000659
  As 0.416963 0.418357 0.083941
  As 0.416599 0.581778 0.250131
  As 0.583250 0.416366 0.249034
  As 0.583507 0.580414 0.084891
  Ga 0.328912 0.331455 0.329093
  Ga 0.328167 0.503119 0.502611
  Ga 0.504291 0.328977 0.504235
  Ga 0.503873 0.502237 0.329045
  Sb 0.417301 0.416457 0.416963
  As 0.412695 0.582387 0.582825
  As 0.582126 0.418870 0.581594
  As 0.583120 0.583110 0.415041
  Ga 0.333214 0.332457 0.665857
  Ga 0.332823 0.499857 0.832108
  Ga 0.494324 0.337204 0.838211
  Ga 0.492798 0.494761 0.661249
  As 0.413064 0.415419 0.749490
  As 0.414825 0.579477 0.916302
  As 0.580774 0.418166 0.919473
  Sb 0.579625 0.579041 0.750294
  Ga 0.331962 0.655976 0.000617
  Ga 0.328227 0.834933 0.172261
  Ga 0.503593 0.661462 0.171295
  Ga 0.496570 0.841103 -0.000815
  Sb 0.415443 0.748394 0.085745
  As 0.416305 0.914982 0.250563
  As 0.582978 0.746905 0.251656
  As 0.580183 0.916680 0.082712
  Ga 0.333673 0.664971 0.332489
  Ga 0.335521 0.830611 0.502235
  Ga 0.493214 0.660464 0.494659
  Ga 0.499028 0.831353 0.331643
  As 0.415082 0.748462 0.414641
  As 0.414552 0.917041 0.584782
  Sb 0.578752 0.748175 0.581573
  As 0.578644 0.916776 0.415194
  Ga 0.334310 0.667089 0.666487
  Ga 0.336079 0.838436 0.830246
  Ga 0.489054 0.667055 0.833081
  Ga 0.495693 0.837622 0.670742
  As 0.413509 0.752461 0.748946
  As 0.415717 0.920457 0.914626
  Sb 0.581653 0.749433 0.916869
  As 0.578893 0.921164 0.750890
  Ga 0.660988 -0.003160 -0.003344
  Ga 0.664814 0.177479 0.168193
  Ga 0.837538 -0.005868 0.160980
  Ga 0.840551 0.174494 0.004105
  Sb 0.748337 0.085494 0.082069
  As 0.748154 0.256482 0.251980
  Sb 0.915496 0.086517 0.251167
  As 0.918162 0.257624 0.087258
  Ga 0.663796 0.001461 0.338815
  Ga 0.660421 0.163150 0.497466
  Ga 0.833148 0.002852 0.494054
  Ga 0.826522 0.173524 0.336974
  As 0.747434 0.085676 0.416725
  Sb 0.748311 0.253297 0.581938
  Sb 0.917366 0.086268 0.586739
  As 0.916917 0.255206 0.414937
  Ga 0.659342 0.004147 0.668223
  Ga 0.665200 0.158502 0.835877
  Ga 0.827038 -0.006259 0.830191
  Ga 0.828506 0.167022 0.676252
  As 0.745530 0.079497 0.751607
  Sb 0.749355 0.254446 0.916477
  Sb 0.916632 0.083015 0.911755
  As 0.917251 0.250611 0.747904
  Ga 0.659299 0.337647 0.005179
  Ga 0.665181 0.497830 0.166708
  Ga 0.832621 0.336345 0.168559
  Ga 0.828900 0.493440 -0.001836
  As 0.747603 0.415774 0.085436
  As 0.744318 0.581201 0.249772
  As 0.916855 0.417243 0.250414
  Sb 0.917399 0.582019 0.082676
  Ga 0.663663 0.335041 0.334487
  Ga 0.665383 0.500213 0.497698
  Ga 0.836816 0.340628 0.494702
  Ga 0.828604 0.497626 0.328408
  As 0.747347 0.418036 0.414460
  As 0.751032 0.579011 0.581394
  As 0.917768 0.417442 0.583360
  Sb 0.917784 0.581686 0.417435
  Ga 0.666284 0.345115 0.667763
  Ga 0.669462 0.496235 0.838663
  Ga 0.838830 0.337935 0.827793
  Ga 0.835415 0.501216 0.666545
  As 0.753212 0.421067 0.750374
  As 0.750975 0.579935 0.918965
  As 0.915509 0.417815 0.916419
  As 0.917766 0.583572 0.750239
  Ga 0.668907 0.660288 0.003069
  Ga 0.659289 0.827391 0.161893
  Ga 0.823174 0.664433 0.167352
  Ga 0.831040 0.829682 -0.002277
  As 0.746820 0.748162 0.081718
  Sb 0.747616 0.912465 0.250211
  Sb 0.917508 0.746219 0.250532
  As 0.916577 0.911464 0.076784
  Ga 0.666423 0.665593 0.334350
  Ga 0.662903 0.832454 0.491395
  Ga 0.829122 0.668225 0.504261
  Ga 0.833138 0.829711 0.342036
  As 0.748054 0.746885 0.418061
  Sb 0.748799 0.916683 0.582713
  As 0.919022 0.746442 0.582241
  As 0.914992 0.913562 0.419785
  Ga 0.670183 0.660295 0.662363
  Ga 0.664342 0.840196 0.830487
  Ga 0.837740 0.661706 0.838650
  Ga 0.845854 0.833481 0.665335
  Sb 0.754006 0.749718 0.749860
  As 0.747149 0.914721 0.916879
  As 0.918966 0.749228 0.917031
  As 0.920001 0.915825 0.753248
K_POINTS automatic
  2 2 2 0 0 0

HUBBARD (atomic)
U In-5p -0.9725
U Ga-4p -3.2649999999999997
U As-4p 5.84
U Sb-5p 4.89
