&CONTROL
  calculation = 'scf',
  etot_conv_thr = 0.0001,
  forc_conv_thr = 0.00045,
  outdir = './tmp_In0.0Ga1.0As0.75Sb0.25_cube_3x3x3.0',
  prefix = 'In0.0Ga1.0As0.75Sb0.25_cube_3x3x3.0',
  pseudo_dir = '/work/i254/i254/gentles/data/pseudos/',
  restart_mode = 'from_scratch',
  verbosity = 'low',
/
&SYSTEM
  celldm(1) = 32.8533033782625,
  ecutwfc = 120,
  ibrav = 1,
  nat = 216,
  nbnd = 2160,
  ntyp = 4,
/
&ELECTRONS
  conv_thr = 1d-05,
  mixing_beta = 0.65,
/
&IONS
/
&CELL
  cell_dofree = 'all',
/
ATOMIC_SPECIES
  As  74.9216 As.pbe.NC-SR.standard.v0.5.UPF
  Ga  69.7230 Ga.pbe.NC-SR.standard.v0.5.UPF
  In  114.8180 In.pbe.NC-SR.standard.v0.5.UPF
  Sb  121.7600 Sb.pbe.NC-SR.standard.v0.5.UPF
ATOMIC_POSITIONS crystal
  Ga 0.004561 0.004910 -0.004837
  Ga 0.003700 0.161186 0.172509
  Ga 0.167275 -0.000878 0.167207
  Ga 0.162550 0.170412 0.006435
  As 0.084499 0.082544 0.085734
  As 0.087205 0.245625 0.253117
  As 0.248259 0.081308 0.252131
  As 0.248639 0.247937 0.089474
  Ga 0.000938 -0.002136 0.334128
  Ga 0.004744 0.160654 0.503991
  Ga 0.167574 -0.001513 0.499725
  Ga 0.166932 0.162569 0.336535
  As 0.084091 0.079494 0.417669
  As 0.083232 0.248028 0.582439
  As 0.248062 0.083303 0.582598
  As 0.249668 0.246719 0.416709
  Ga -0.000786 0.001151 0.663423
  Ga 0.000112 0.165384 0.830481
  Ga 0.161188 -0.002301 0.828585
  Ga 0.164341 0.164582 0.664460
  As 0.080855 0.082405 0.746517
  As 0.083009 0.245765 0.914619
  Sb 0.246662 0.084175 0.915476
  As 0.248730 0.245429 0.744260
  Ga 0.000606 0.332770 -0.010733
  Ga 0.004524 0.506547 0.174735
  Ga 0.169625 0.329335 0.172045
  Ga 0.167525 0.510353 0.000322
  Sb 0.084009 0.417210 0.083677
  As 0.088504 0.587585 0.252719
  As 0.249641 0.417082 0.250509
  As 0.252516 0.586701 0.085672
  Ga 0.009161 0.330902 0.335398
  Ga 0.002314 0.493544 0.503234
  Ga 0.166313 0.329825 0.498392
  Ga 0.167523 0.500252 0.333230
  As 0.087216 0.415816 0.417533
  As 0.081668 0.582028 0.580536
  As 0.246357 0.413073 0.580099
  As 0.246360 0.584249 0.414031
  Ga -0.006431 0.326590 0.662224
  Ga -0.004170 0.505674 0.836031
  Ga 0.167307 0.322553 0.831179
  Ga 0.165952 0.499160 0.658329
  Sb 0.079992 0.414657 0.748875
  As 0.082856 0.587712 0.916703
  Sb 0.249076 0.414289 0.918897
  Sb 0.248420 0.586618 0.750096
  Ga 0.008086 0.669962 0.001795
  Ga 0.005695 0.831397 0.171397
  Ga 0.170463 0.668480 0.168653
  Ga 0.167302 0.834870 0.001770
  As 0.088015 0.751180 0.086287
  As 0.085426 0.917182 0.251463
  As 0.249443 0.751411 0.252721
  As 0.248627 0.915130 0.085781
  Ga 0.004407 0.672332 0.330616
  Ga 0.000608 0.834431 0.499942
  Ga 0.159769 0.663109 0.493913
  Ga 0.167374 0.835731 0.333972
  As 0.083113 0.753765 0.415500
  As 0.082083 0.918720 0.582037
  Sb 0.247185 0.751769 0.579105
  As 0.249762 0.919203 0.413655
  Ga 0.001597 0.666797 0.664525
  Ga 0.002637 0.840729 0.830011
  Ga 0.161489 0.674510 0.836151
  Ga 0.162215 0.838443 0.667904
  As 0.081059 0.753662 0.748845
  As 0.084917 0.917575 0.916396
  As 0.249601 0.752672 0.918381
  As 0.247836 0.917580 0.750316
  Ga 0.330874 -0.007470 -0.000398
  Ga 0.328813 0.165955 0.172352
  Ga 0.499013 -0.009278 0.171602
  Ga 0.508605 0.163981 -0.000746
  Sb 0.416962 0.080388 0.085148
  As 0.413631 0.249217 0.249798
  Sb 0.584551 0.083189 0.253245
  As 0.584283 0.250568 0.082204
  Ga 0.333055 0.000852 0.332936
  Ga 0.332899 0.164691 0.500012
  Ga 0.504662 0.005767 0.495982
  Ga 0.494861 0.170639 0.337330
  As 0.415155 0.084129 0.416381
  As 0.416005 0.246823 0.582868
  As 0.584182 0.086415 0.582495
  As 0.583610 0.245792 0.420349
  Ga 0.328452 0.003112 0.669127
  Ga 0.334540 0.165928 0.824179
  Ga 0.498844 -0.000358 0.834137
  Ga 0.499595 0.165797 0.665502
  As 0.418179 0.081692 0.747979
  Sb 0.417411 0.249656 0.917737
  As 0.585123 0.082026 0.914381
  As 0.586475 0.246272 0.747331
  Ga 0.331748 0.331616 0.011937
  Ga 0.333576 0.500674 0.168146
  Ga 0.496239 0.328986 0.164101
  Ga 0.496151 0.494822 -0.003076
  As 0.415642 0.416468 0.086272
  As 0.413179 0.587010 0.250871
  Sb 0.584489 0.415065 0.251746
  Sb 0.580237 0.583456 0.085560
  Ga 0.329337 0.329796 0.330163
  Ga 0.322080 0.499824 0.498387
  Ga 0.504748 0.327665 0.504426
  Ga 0.500063 0.510445 0.333572
  Sb 0.416843 0.415986 0.417362
  Sb 0.416291 0.584937 0.578783
  As 0.589378 0.411930 0.580797
  As 0.585780 0.587495 0.416612
  Ga 0.328162 0.328283 0.660746
  Ga 0.337184 0.502716 0.836947
  Ga 0.509679 0.330022 0.831718
  Ga 0.505851 0.494038 0.656711
  Sb 0.418310 0.413576 0.746686
  As 0.414380 0.584062 0.921183
  As 0.584166 0.413524 0.917169
  Sb 0.583728 0.583491 0.748003
  Ga 0.332856 0.669551 0.002650
  Ga 0.330302 0.833363 0.169375
  Ga 0.494053 0.673463 0.171686
  Ga 0.495720 0.838297 0.004472
  As 0.413555 0.753959 0.085600
  As 0.413321 0.914140 0.252592
  As 0.582281 0.752665 0.251967
  As 0.582131 0.915974 0.086335
  Ga 0.331447 0.667499 0.333752
  Ga 0.333524 0.834468 0.488402
  Ga 0.503384 0.672720 0.494450
  Ga 0.498906 0.834758 0.332742
  As 0.417616 0.750461 0.411838
  Sb 0.417110 0.917905 0.581540
  As 0.584211 0.751001 0.581606
  As 0.581963 0.916890 0.415679
  Ga 0.338805 0.675176 0.670199
  Ga 0.331812 0.835479 0.833862
  Ga 0.491723 0.665719 0.835773
  Ga 0.504448 0.831647 0.669263
  As 0.417892 0.754891 0.753641
  As 0.415373 0.916541 0.916290
  Sb 0.582954 0.753637 0.915958
  As 0.581974 0.920130 0.748395
  Ga 0.661158 0.002907 0.004759
  Ga 0.668853 0.171278 0.163672
  Ga 0.829460 0.004074 0.171286
  Ga 0.829231 0.160233 -0.006090
  As 0.747867 0.084105 0.083508
  As 0.748456 0.248319 0.251849
  As 0.917005 0.081191 0.252819
  Sb 0.916845 0.245654 0.081284
  Ga 0.671816 -0.004551 0.339493
  Ga 0.668915 0.165226 0.500714
  Ga 0.839503 0.004921 0.496145
  Ga 0.830492 0.162693 0.329979
  As 0.751843 0.082884 0.417385
  As 0.750605 0.248881 0.582859
  As 0.917603 0.083712 0.583816
  Sb 0.916596 0.248181 0.419256
  Ga 0.662900 0.005600 0.668968
  Ga 0.668568 0.165602 0.831784
  Ga 0.838994 0.004150 0.827485
  Ga 0.832645 0.165714 0.664919
  As 0.750887 0.084760 0.748682
  As 0.749020 0.249260 0.914989
  As 0.918667 0.084053 0.912557
  As 0.914894 0.246235 0.748574
  Ga 0.666393 0.332271 -0.000056
  Ga 0.675019 0.499753 0.166487
  Ga 0.826913 0.330522 0.167474
  Ga 0.836522 0.488723 0.001096
  As 0.749871 0.413027 0.082702
  As 0.748941 0.585697 0.252009
  Sb 0.915701 0.415997 0.253688
  Sb 0.916249 0.585740 0.085467
  Ga 0.668045 0.326794 0.340513
  Ga 0.666175 0.500599 0.499221
  Ga 0.828901 0.337452 0.503812
  Ga 0.823979 0.500429 0.336829
  As 0.746125 0.415958 0.419461
  As 0.750825 0.582838 0.582117
  As 0.914730 0.415092 0.584084
  Sb 0.917482 0.584905 0.418426
  Ga 0.669582 0.329912 0.665898
  Ga 0.667083 0.491123 0.833046
  Ga 0.833231 0.330554 0.830284
  Ga 0.833892 0.499435 0.665764
  As 0.751642 0.413377 0.747905
  Sb 0.753086 0.580713 0.916566
  As 0.916123 0.414554 0.911727
  As 0.917609 0.583729 0.745209
  Ga 0.671050 0.671393 0.005235
  Ga 0.665150 0.835102 0.169676
  Ga 0.830711 0.672151 0.174304
  Ga 0.828938 0.829561 0.005985
  As 0.748360 0.752003 0.091321
  As 0.750792 0.916194 0.252427
  As 0.918301 0.752824 0.252206
  Sb 0.918933 0.919169 0.085157
  Ga 0.666706 0.668592 0.332996
  Ga 0.662468 0.832004 0.495591
  Ga 0.830523 0.672394 0.504108
  Ga 0.835074 0.834648 0.334806
  As 0.749465 0.751604 0.415635
  Sb 0.750968 0.918490 0.582260
  As 0.919293 0.751307 0.583861
  As 0.918592 0.916872 0.416669
  Ga 0.671181 0.670374 0.660228
  Ga 0.667653 0.835944 0.822191
  Ga 0.833345 0.666272 0.822176
  Ga 0.840472 0.832717 0.668745
  As 0.752068 0.751822 0.743729
  Sb 0.749874 0.919501 0.915734
  Sb 0.917287 0.751012 0.914021
  As 0.919859 0.919853 0.747438
K_POINTS automatic
  2 2 2 0 0 0

HUBBARD (atomic)
U In-5p -0.9725
U Ga-4p -3.2649999999999997
U As-4p 5.84
U Sb-5p 4.89
