&CONTROL
  calculation = 'scf',
  etot_conv_thr = 0.0001,
  forc_conv_thr = 0.00045,
  outdir = './tmp_In1.0Ga0.0As0.25Sb0.75_cube_3x3x3.1',
  prefix = 'In1.0Ga0.0As0.25Sb0.75_cube_3x3x3.1',
  pseudo_dir = '/work/i254/i254/gentles/data/pseudos/',
  restart_mode = 'from_scratch',
  verbosity = 'low',
/
&SYSTEM
  celldm(1) = 36.38607031707982,
  ecutwfc = 120,
  ibrav = 1,
  nat = 216,
  nbnd = 2160,
  ntyp = 4,
/
&ELECTRONS
  conv_thr = 1d-05,
  mixing_beta = 0.65,
/
&IONS
/
&CELL
  cell_dofree = 'all',
/
ATOMIC_SPECIES
  As  74.9216 As.pbe.NC-SR.standard.v0.5.UPF
  Ga  69.7230 Ga.pbe.NC-SR.standard.v0.5.UPF
  In  114.8180 In.pbe.NC-SR.standard.v0.5.UPF
  Sb  121.7600 Sb.pbe.NC-SR.standard.v0.5.UPF
ATOMIC_POSITIONS crystal
  In -0.001344 0.000273 0.002558
  In 0.002874 0.171351 0.173760
  In 0.165682 -0.001292 0.168303
  In 0.167601 0.166216 -0.000150
  Sb 0.082812 0.085318 0.086109
  As 0.080918 0.253831 0.252975
  Sb 0.246964 0.082906 0.254215
  Sb 0.248722 0.251864 0.085118
  In -0.000124 -0.000119 0.343541
  In 0.005678 0.160956 0.496215
  In 0.170750 0.003878 0.496068
  In 0.156849 0.167989 0.333055
  As 0.085502 0.081615 0.416383
  Sb 0.085590 0.249103 0.581429
  As 0.249742 0.083452 0.580488
  Sb 0.245271 0.249455 0.416826
  In 0.001752 0.000389 0.666070
  In 0.000259 0.166050 0.833370
  In 0.167738 -0.002531 0.831961
  In 0.175864 0.168016 0.663734
  Sb 0.087624 0.085531 0.747894
  Sb 0.084898 0.251804 0.915939
  Sb 0.251438 0.083029 0.914936
  As 0.251337 0.250597 0.747320
  In 0.005830 0.338508 0.003773
  In -0.000247 0.492630 0.167173
  In 0.159331 0.332412 0.169028
  In 0.166259 0.498534 0.007882
  As 0.084256 0.416436 0.086933
  Sb 0.082711 0.580441 0.250101
  Sb 0.247197 0.416243 0.251204
  As 0.248593 0.581910 0.083813
  In 0.002690 0.339261 0.331286
  In 0.009073 0.500999 0.498684
  In 0.162552 0.339267 0.496391
  In 0.163996 0.498123 0.338972
  As 0.082629 0.417990 0.415797
  As 0.085806 0.583704 0.582041
  Sb 0.248747 0.418686 0.585161
  Sb 0.249046 0.585744 0.419501
  In 0.001185 0.334451 0.665067
  In 0.000907 0.499081 0.832652
  In 0.171343 0.330462 0.827829
  In 0.168184 0.509783 0.665532
  Sb 0.087243 0.418836 0.747289
  Sb 0.085199 0.582039 0.918292
  Sb 0.250206 0.419921 0.913876
  As 0.252625 0.585264 0.746533
  In -0.000504 0.666807 0.001069
  In 0.000167 0.831518 0.168441
  In 0.171387 0.661653 0.166375
  In 0.167767 0.831720 -0.002233
  Sb 0.086095 0.748265 0.084940
  Sb 0.081963 0.916488 0.255265
  Sb 0.252260 0.750179 0.252368
  Sb 0.250505 0.915540 0.083309
  In 0.000622 0.668388 0.333880
  In -0.006066 0.836486 0.494384
  In 0.167520 0.667630 0.509018
  In 0.171048 0.836728 0.338643
  Sb 0.085281 0.750852 0.419870
  Sb 0.084510 0.917106 0.578314
  As 0.252676 0.747942 0.583421
  As 0.250340 0.915794 0.420288
  In 0.003736 0.663286 0.659892
  In 0.001224 0.830454 0.829562
  In 0.172081 0.660641 0.829527
  In 0.171115 0.829347 0.659125
  Sb 0.087392 0.746094 0.745694
  Sb 0.081847 0.916006 0.916281
  Sb 0.252662 0.747666 0.913792
  Sb 0.251932 0.913963 0.746659
  In 0.335610 -0.001689 -0.000998
  In 0.332382 0.165351 0.168486
  In 0.508057 -0.001904 0.166755
  In 0.499498 0.166148 -0.001857
  Sb 0.418753 0.081376 0.085117
  Sb 0.419054 0.248332 0.250510
  As 0.584479 0.079618 0.249579
  Sb 0.582246 0.249093 0.084715
  In 0.329403 -0.005409 0.338313
  In 0.329407 0.165585 0.502881
  In 0.499421 -0.003087 0.499512
  In 0.503434 0.159616 0.330131
  Sb 0.414800 0.082173 0.417619
  Sb 0.415293 0.252070 0.584943
  Sb 0.584396 0.080118 0.583494
  Sb 0.582296 0.248953 0.416309
  In 0.329292 0.001695 0.659356
  In 0.329196 0.170823 0.828138
  In 0.499189 -0.000666 0.829113
  In 0.500486 0.166168 0.666097
  Sb 0.413020 0.083481 0.746706
  Sb 0.414977 0.251471 0.914234
  Sb 0.584068 0.079836 0.916238
  Sb 0.581139 0.253899 0.749582
  In 0.333251 0.336281 -0.000269
  In 0.327633 0.504454 0.166058
  In 0.499594 0.336395 0.167024
  In 0.504157 0.505949 0.003372
  Sb 0.415915 0.421842 0.084033
  Sb 0.416421 0.585362 0.250029
  Sb 0.585073 0.421326 0.249041
  As 0.584649 0.585643 0.083020
  In 0.333308 0.331217 0.334105
  In 0.334012 0.502062 0.501900
  In 0.503293 0.336823 0.503817
  In 0.499733 0.501513 0.334763
  Sb 0.416803 0.416756 0.418281
  Sb 0.418115 0.587058 0.585082
  As 0.582053 0.418973 0.583929
  Sb 0.583824 0.586872 0.418809
  In 0.332209 0.334722 0.672752
  In 0.334437 0.502726 0.824409
  In 0.494011 0.340547 0.829934
  In 0.498074 0.494627 0.666354
  As 0.414094 0.418366 0.747579
  Sb 0.417562 0.584985 0.914513
  Sb 0.582356 0.418666 0.916984
  Sb 0.579958 0.585499 0.748000
  In 0.329358 0.661130 0.002617
  In 0.336685 0.832338 0.166583
  In 0.504709 0.663672 0.163572
  In 0.508157 0.832805 0.001919
  Sb 0.418920 0.747326 0.081206
  Sb 0.419396 0.916167 0.252240
  Sb 0.584742 0.749237 0.250731
  As 0.585825 0.915431 0.084928
  In 0.337951 0.670274 0.339051
  In 0.328557 0.828890 0.497823
  In 0.500054 0.675647 0.500596
  In 0.496023 0.826532 0.339091
  As 0.414491 0.750726 0.420789
  Sb 0.414982 0.911210 0.582288
  As 0.582302 0.750637 0.582911
  Sb 0.584522 0.913779 0.415988
  In 0.331781 0.670228 0.669698
  In 0.340151 0.829121 0.828215
  In 0.499336 0.675590 0.833173
  In 0.499357 0.824450 0.666506
  As 0.417369 0.748261 0.748029
  Sb 0.420849 0.913450 0.916255
  As 0.582128 0.751185 0.917668
  Sb 0.583923 0.911417 0.748845
  In 0.666347 -0.008407 0.000902
  In 0.662754 0.162135 0.170667
  In 0.830956 -0.003872 0.172869
  In 0.833780 0.167050 0.003891
  Sb 0.748407 0.079534 0.085582
  Sb 0.749794 0.249646 0.250530
  Sb 0.918791 0.081726 0.253642
  Sb 0.919537 0.253227 0.086352
  In 0.665972 -0.001888 0.326641
  In 0.667439 0.164633 0.498809
  In 0.831151 -0.009571 0.499391
  In 0.834164 0.166542 0.335032
  Sb 0.749880 0.078606 0.415326
  Sb 0.749793 0.251713 0.581728
  Sb 0.915898 0.079948 0.579168
  Sb 0.922070 0.250592 0.415306
  In 0.670621 -0.007676 0.662125
  In 0.665681 0.166827 0.832154
  In 0.827038 -0.005952 0.838461
  In 0.833394 0.165150 0.664871
  Sb 0.749192 0.079856 0.749027
  Sb 0.750345 0.249933 0.917263
  Sb 0.914273 0.081844 0.917128
  Sb 0.917109 0.249938 0.748622
  In 0.666610 0.333892 0.001647
  In 0.667156 0.509858 0.165872
  In 0.836953 0.337726 0.172004
  In 0.831948 0.502236 -0.000217
  Sb 0.749933 0.419492 0.086412
  As 0.750965 0.582652 0.249526
  As 0.918619 0.417019 0.250950
  Sb 0.916373 0.582371 0.086652
  In 0.666545 0.334972 0.334053
  In 0.664690 0.501754 0.506953
  In 0.836505 0.334827 0.498046
  In 0.834723 0.500142 0.325837
  Sb 0.750114 0.420693 0.417021
  As 0.746294 0.584594 0.582572
  Sb 0.918777 0.421141 0.581618
  Sb 0.917662 0.581271 0.416190
  In 0.662310 0.337778 0.661805
  In 0.665772 0.502759 0.832084
  In 0.833053 0.334284 0.832019
  In 0.829028 0.505905 0.661227
  Sb 0.748940 0.419024 0.746799
  Sb 0.747387 0.587208 0.917108
  Sb 0.917069 0.417177 0.917868
  Sb 0.917637 0.583622 0.746791
  In 0.657652 0.668660 -0.000299
  In 0.666931 0.840190 0.169320
  In 0.828341 0.664669 0.170374
  In 0.828167 0.834863 -0.002672
  Sb 0.745376 0.750641 0.084142
  As 0.748911 0.917415 0.251256
  Sb 0.912566 0.751729 0.252561
  Sb 0.914163 0.914770 0.084751
  In 0.672682 0.663523 0.330543
  In 0.665185 0.831974 0.506755
  In 0.829168 0.661247 0.501552
  In 0.831300 0.841620 0.334868
  Sb 0.750137 0.751311 0.418224
  As 0.749782 0.912987 0.581179
  Sb 0.914732 0.749007 0.581283
  As 0.914219 0.917755 0.416363
  In 0.663313 0.666480 0.658484
  In 0.665288 0.831081 0.840773
  In 0.832513 0.667679 0.829897
  In 0.829128 0.835328 0.663085
  Sb 0.745262 0.750526 0.747524
  As 0.746268 0.913344 0.918339
  Sb 0.915427 0.750562 0.915877
  Sb 0.914720 0.916527 0.749465
K_POINTS automatic
  2 2 2 0 0 0

HUBBARD (atomic)
U In-5p -1.0575
U Ga-4p -2.335
U As-4p 3.26
U Sb-5p 3.16
