&CONTROL
  calculation = 'vc-relax',
  etot_conv_thr = 0.0001,
  forc_conv_thr = 0.00045,
  outdir = './tmp_In1.0Ga0.0As0.25Sb0.75_cube_3x3x3.1',
  prefix = 'In1.0Ga0.0As0.25Sb0.75_cube_3x3x3.1',
  pseudo_dir = '/work/i254/i254/gentles/data/pseudos/',
  restart_mode = 'from_scratch',
  verbosity = 'low',
/
&SYSTEM
  celldm(1) = 36.4956675,
  ecutwfc = 120,
  ibrav = 1,
  nat = 216,
  nbnd = 1512,
  ntyp = 4,
/
&ELECTRONS
  conv_thr = 1d-05,
  mixing_beta = 0.65,
/
&IONS
/
&CELL
  cell_dofree = 'all',
/
ATOMIC_SPECIES
  As  74.9216 As.pbe.NC-SR.standard.v0.5.UPF
  Ga  69.7230 Ga.pbe.NC-SR.standard.v0.5.UPF
  In  114.8180 In.pbe.NC-SR.standard.v0.5.UPF
  Sb  121.7600 Sb.pbe.NC-SR.standard.v0.5.UPF
ATOMIC_POSITIONS crystal
  In 0.000000 0.000000 0.000000
  In 0.000000 0.166667 0.166667
  In 0.166667 0.000000 0.166667
  In 0.166667 0.166667 0.000000
  Sb 0.083333 0.083333 0.083333
  As 0.083333 0.250000 0.250000
  Sb 0.250000 0.083333 0.250000
  Sb 0.250000 0.250000 0.083333
  In 0.000000 0.000000 0.333333
  In 0.000000 0.166667 0.500000
  In 0.166667 0.000000 0.500000
  In 0.166667 0.166667 0.333333
  As 0.083333 0.083333 0.416667
  Sb 0.083333 0.250000 0.583333
  As 0.250000 0.083333 0.583333
  Sb 0.250000 0.250000 0.416667
  In 0.000000 0.000000 0.666667
  In 0.000000 0.166667 0.833333
  In 0.166667 0.000000 0.833333
  In 0.166667 0.166667 0.666667
  Sb 0.083333 0.083333 0.750000
  Sb 0.083333 0.250000 0.916667
  Sb 0.250000 0.083333 0.916667
  As 0.250000 0.250000 0.750000
  In 0.000000 0.333333 0.000000
  In 0.000000 0.500000 0.166667
  In 0.166667 0.333333 0.166667
  In 0.166667 0.500000 0.000000
  As 0.083333 0.416667 0.083333
  Sb 0.083333 0.583333 0.250000
  Sb 0.250000 0.416667 0.250000
  As 0.250000 0.583333 0.083333
  In 0.000000 0.333333 0.333333
  In 0.000000 0.500000 0.500000
  In 0.166667 0.333333 0.500000
  In 0.166667 0.500000 0.333333
  As 0.083333 0.416667 0.416667
  As 0.083333 0.583333 0.583333
  Sb 0.250000 0.416667 0.583333
  Sb 0.250000 0.583333 0.416667
  In 0.000000 0.333333 0.666667
  In 0.000000 0.500000 0.833333
  In 0.166667 0.333333 0.833333
  In 0.166667 0.500000 0.666667
  Sb 0.083333 0.416667 0.750000
  Sb 0.083333 0.583333 0.916667
  Sb 0.250000 0.416667 0.916667
  As 0.250000 0.583333 0.750000
  In 0.000000 0.666667 0.000000
  In 0.000000 0.833333 0.166667
  In 0.166667 0.666667 0.166667
  In 0.166667 0.833333 0.000000
  Sb 0.083333 0.750000 0.083333
  Sb 0.083333 0.916667 0.250000
  Sb 0.250000 0.750000 0.250000
  Sb 0.250000 0.916667 0.083333
  In 0.000000 0.666667 0.333333
  In 0.000000 0.833333 0.500000
  In 0.166667 0.666667 0.500000
  In 0.166667 0.833333 0.333333
  Sb 0.083333 0.750000 0.416667
  Sb 0.083333 0.916667 0.583333
  As 0.250000 0.750000 0.583333
  As 0.250000 0.916667 0.416667
  In 0.000000 0.666667 0.666667
  In 0.000000 0.833333 0.833333
  In 0.166667 0.666667 0.833333
  In 0.166667 0.833333 0.666667
  Sb 0.083333 0.750000 0.750000
  Sb 0.083333 0.916667 0.916667
  Sb 0.250000 0.750000 0.916667
  Sb 0.250000 0.916667 0.750000
  In 0.333333 0.000000 0.000000
  In 0.333333 0.166667 0.166667
  In 0.500000 0.000000 0.166667
  In 0.500000 0.166667 0.000000
  Sb 0.416667 0.083333 0.083333
  Sb 0.416667 0.250000 0.250000
  As 0.583333 0.083333 0.250000
  Sb 0.583333 0.250000 0.083333
  In 0.333333 0.000000 0.333333
  In 0.333333 0.166667 0.500000
  In 0.500000 0.000000 0.500000
  In 0.500000 0.166667 0.333333
  Sb 0.416667 0.083333 0.416667
  Sb 0.416667 0.250000 0.583333
  Sb 0.583333 0.083333 0.583333
  Sb 0.583333 0.250000 0.416667
  In 0.333333 0.000000 0.666667
  In 0.333333 0.166667 0.833333
  In 0.500000 0.000000 0.833333
  In 0.500000 0.166667 0.666667
  Sb 0.416667 0.083333 0.750000
  Sb 0.416667 0.250000 0.916667
  Sb 0.583333 0.083333 0.916667
  Sb 0.583333 0.250000 0.750000
  In 0.333333 0.333333 0.000000
  In 0.333333 0.500000 0.166667
  In 0.500000 0.333333 0.166667
  In 0.500000 0.500000 0.000000
  Sb 0.416667 0.416667 0.083333
  Sb 0.416667 0.583333 0.250000
  Sb 0.583333 0.416667 0.250000
  As 0.583333 0.583333 0.083333
  In 0.333333 0.333333 0.333333
  In 0.333333 0.500000 0.500000
  In 0.500000 0.333333 0.500000
  In 0.500000 0.500000 0.333333
  Sb 0.416667 0.416667 0.416667
  Sb 0.416667 0.583333 0.583333
  As 0.583333 0.416667 0.583333
  Sb 0.583333 0.583333 0.416667
  In 0.333333 0.333333 0.666667
  In 0.333333 0.500000 0.833333
  In 0.500000 0.333333 0.833333
  In 0.500000 0.500000 0.666667
  As 0.416667 0.416667 0.750000
  Sb 0.416667 0.583333 0.916667
  Sb 0.583333 0.416667 0.916667
  Sb 0.583333 0.583333 0.750000
  In 0.333333 0.666667 0.000000
  In 0.333333 0.833333 0.166667
  In 0.500000 0.666667 0.166667
  In 0.500000 0.833333 0.000000
  Sb 0.416667 0.750000 0.083333
  Sb 0.416667 0.916667 0.250000
  Sb 0.583333 0.750000 0.250000
  As 0.583333 0.916667 0.083333
  In 0.333333 0.666667 0.333333
  In 0.333333 0.833333 0.500000
  In 0.500000 0.666667 0.500000
  In 0.500000 0.833333 0.333333
  As 0.416667 0.750000 0.416667
  Sb 0.416667 0.916667 0.583333
  As 0.583333 0.750000 0.583333
  Sb 0.583333 0.916667 0.416667
  In 0.333333 0.666667 0.666667
  In 0.333333 0.833333 0.833333
  In 0.500000 0.666667 0.833333
  In 0.500000 0.833333 0.666667
  As 0.416667 0.750000 0.750000
  Sb 0.416667 0.916667 0.916667
  As 0.583333 0.750000 0.916667
  Sb 0.583333 0.916667 0.750000
  In 0.666667 0.000000 0.000000
  In 0.666667 0.166667 0.166667
  In 0.833333 0.000000 0.166667
  In 0.833333 0.166667 0.000000
  Sb 0.750000 0.083333 0.083333
  Sb 0.750000 0.250000 0.250000
  Sb 0.916667 0.083333 0.250000
  Sb 0.916667 0.250000 0.083333
  In 0.666667 0.000000 0.333333
  In 0.666667 0.166667 0.500000
  In 0.833333 0.000000 0.500000
  In 0.833333 0.166667 0.333333
  Sb 0.750000 0.083333 0.416667
  Sb 0.750000 0.250000 0.583333
  Sb 0.916667 0.083333 0.583333
  Sb 0.916667 0.250000 0.416667
  In 0.666667 0.000000 0.666667
  In 0.666667 0.166667 0.833333
  In 0.833333 0.000000 0.833333
  In 0.833333 0.166667 0.666667
  Sb 0.750000 0.083333 0.750000
  Sb 0.750000 0.250000 0.916667
  Sb 0.916667 0.083333 0.916667
  Sb 0.916667 0.250000 0.750000
  In 0.666667 0.333333 0.000000
  In 0.666667 0.500000 0.166667
  In 0.833333 0.333333 0.166667
  In 0.833333 0.500000 0.000000
  Sb 0.750000 0.416667 0.083333
  As 0.750000 0.583333 0.250000
  As 0.916667 0.416667 0.250000
  Sb 0.916667 0.583333 0.083333
  In 0.666667 0.333333 0.333333
  In 0.666667 0.500000 0.500000
  In 0.833333 0.333333 0.500000
  In 0.833333 0.500000 0.333333
  Sb 0.750000 0.416667 0.416667
  As 0.750000 0.583333 0.583333
  Sb 0.916667 0.416667 0.583333
  Sb 0.916667 0.583333 0.416667
  In 0.666667 0.333333 0.666667
  In 0.666667 0.500000 0.833333
  In 0.833333 0.333333 0.833333
  In 0.833333 0.500000 0.666667
  Sb 0.750000 0.416667 0.750000
  Sb 0.750000 0.583333 0.916667
  Sb 0.916667 0.416667 0.916667
  Sb 0.916667 0.583333 0.750000
  In 0.666667 0.666667 0.000000
  In 0.666667 0.833333 0.166667
  In 0.833333 0.666667 0.166667
  In 0.833333 0.833333 0.000000
  Sb 0.750000 0.750000 0.083333
  As 0.750000 0.916667 0.250000
  Sb 0.916667 0.750000 0.250000
  Sb 0.916667 0.916667 0.083333
  In 0.666667 0.666667 0.333333
  In 0.666667 0.833333 0.500000
  In 0.833333 0.666667 0.500000
  In 0.833333 0.833333 0.333333
  Sb 0.750000 0.750000 0.416667
  As 0.750000 0.916667 0.583333
  Sb 0.916667 0.750000 0.583333
  As 0.916667 0.916667 0.416667
  In 0.666667 0.666667 0.666667
  In 0.666667 0.833333 0.833333
  In 0.833333 0.666667 0.833333
  In 0.833333 0.833333 0.666667
  Sb 0.750000 0.750000 0.750000
  As 0.750000 0.916667 0.916667
  Sb 0.916667 0.750000 0.916667
  Sb 0.916667 0.916667 0.750000
K_POINTS gamma

HUBBARD (atomic)
U In-5p -1.0575
U Ga-4p -2.335
U As-4p 3.26
U Sb-5p 3.16
