&CONTROL
  calculation = 'scf',
  etot_conv_thr = 0.0001,
  forc_conv_thr = 0.00045,
  outdir = './tmp_In1.0Ga0.0As0.25Sb0.75_cube_3x3x3.7',
  prefix = 'In1.0Ga0.0As0.25Sb0.75_cube_3x3x3.7',
  pseudo_dir = '/work/i254/i254/gentles/data/pseudos/',
  restart_mode = 'from_scratch',
  verbosity = 'low',
/
&SYSTEM
  celldm(1) = 36.392836321868984,
  ecutwfc = 120,
  ibrav = 1,
  nat = 216,
  nbnd = 2160,
  ntyp = 4,
/
&ELECTRONS
  conv_thr = 1d-05,
  mixing_beta = 0.65,
/
&IONS
/
&CELL
  cell_dofree = 'all',
/
ATOMIC_SPECIES
  As  74.9216 As.pbe.NC-SR.standard.v0.5.UPF
  Ga  69.7230 Ga.pbe.NC-SR.standard.v0.5.UPF
  In  114.8180 In.pbe.NC-SR.standard.v0.5.UPF
  Sb  121.7600 Sb.pbe.NC-SR.standard.v0.5.UPF
ATOMIC_POSITIONS crystal
  In -0.004167 -0.005243 -0.003218
  In -0.008043 0.166240 0.168862
  In 0.164785 0.001080 0.167991
  In 0.164521 0.166258 0.001906
  Sb 0.077153 0.082005 0.083333
  Sb 0.079226 0.250321 0.252711
  Sb 0.250908 0.085985 0.251081
  Sb 0.250571 0.250752 0.083429
  In -0.005070 0.006362 0.328391
  In -0.005178 0.173168 0.493990
  In 0.164756 0.000178 0.499112
  In 0.169984 0.172881 0.337167
  Sb 0.081420 0.086096 0.415126
  Sb 0.085125 0.251642 0.578485
  Sb 0.251242 0.084075 0.580620
  As 0.250430 0.252227 0.417216
  In -0.001006 0.001396 0.663969
  In -0.002910 0.161944 0.839076
  In 0.163238 -0.004479 0.837629
  In 0.166159 0.167111 0.666621
  Sb 0.082548 0.082317 0.751715
  Sb 0.081619 0.250856 0.918824
  Sb 0.249305 0.082380 0.918189
  Sb 0.248621 0.254207 0.749765
  In -0.003915 0.328429 0.007601
  In -0.002733 0.493365 0.172963
  In 0.165255 0.332765 0.169083
  In 0.172987 0.499852 0.000755
  Sb 0.083609 0.416764 0.083665
  Sb 0.083815 0.581789 0.250843
  Sb 0.247522 0.418370 0.253271
  As 0.250681 0.581067 0.081950
  In -0.002593 0.336737 0.337745
  In 0.004757 0.498091 0.495380
  In 0.170562 0.337388 0.495137
  In 0.165248 0.500380 0.342053
  As 0.084164 0.415635 0.416828
  Sb 0.086544 0.583145 0.582330
  As 0.249663 0.417988 0.577745
  As 0.250368 0.580488 0.418465
  In 0.001349 0.330922 0.667097
  In 0.001507 0.498996 0.834494
  In 0.169565 0.338599 0.839766
  In 0.171869 0.495252 0.661823
  Sb 0.085906 0.416214 0.749685
  Sb 0.086967 0.583345 0.916364
  As 0.250476 0.419474 0.918805
  Sb 0.252419 0.581483 0.749272
  In 0.001142 0.664377 0.001908
  In -0.007949 0.833690 0.166826
  In 0.169500 0.660909 0.161155
  In 0.162209 0.838028 -0.002528
  Sb 0.082367 0.751354 0.085023
  Sb 0.078835 0.917335 0.249479
  Sb 0.248602 0.745803 0.250281
  Sb 0.250246 0.917672 0.084264
  In -0.003185 0.671600 0.326378
  In -0.000346 0.835117 0.497992
  In 0.171077 0.663328 0.494425
  In 0.166048 0.834172 0.332123
  Sb 0.082995 0.749151 0.414828
  Sb 0.083942 0.914843 0.584374
  Sb 0.251141 0.747863 0.582918
  Sb 0.251900 0.917332 0.416861
  In 0.004332 0.669927 0.668860
  In 0.006733 0.833921 0.833124
  In 0.163653 0.669804 0.826630
  In 0.163849 0.827117 0.669715
  As 0.082286 0.750977 0.750224
  As 0.080951 0.916402 0.916771
  Sb 0.247281 0.748527 0.917167
  Sb 0.248659 0.915386 0.748867
  In 0.337280 0.004190 0.004886
  In 0.337172 0.163903 0.162522
  In 0.498059 0.005003 0.164234
  In 0.497194 0.164485 0.004896
  As 0.417705 0.083887 0.084033
  Sb 0.415502 0.247762 0.252227
  Sb 0.585121 0.083421 0.252365
  Sb 0.583612 0.248636 0.088027
  In 0.336983 0.004694 0.336980
  In 0.333028 0.167021 0.491755
  In 0.497757 -0.003861 0.496976
  In 0.496460 0.161297 0.338008
  As 0.417064 0.081866 0.418813
  Sb 0.414156 0.250929 0.579800
  Sb 0.584474 0.081073 0.580207
  Sb 0.585215 0.248250 0.413584
  In 0.336113 -0.004291 0.660701
  In 0.331966 0.166105 0.830924
  In 0.500563 -0.000148 0.833589
  In 0.499584 0.166862 0.663148
  Sb 0.416514 0.081571 0.747271
  Sb 0.415184 0.249456 0.917492
  Sb 0.583712 0.084567 0.917684
  Sb 0.585295 0.249034 0.748366
  In 0.329541 0.337956 -0.003618
  In 0.329029 0.503230 0.165858
  In 0.497911 0.335137 0.168878
  In 0.499503 0.508196 0.001006
  Sb 0.415004 0.420030 0.082409
  Sb 0.416844 0.583198 0.251399
  Sb 0.585183 0.417929 0.250482
  As 0.582146 0.584225 0.083594
  In 0.329863 0.331040 0.336171
  In 0.329906 0.503008 0.502477
  In 0.501293 0.333363 0.497825
  In 0.503644 0.502654 0.337222
  Sb 0.414914 0.418623 0.417735
  As 0.414904 0.581594 0.579699
  Sb 0.581847 0.419744 0.581374
  As 0.582783 0.583558 0.417257
  In 0.327942 0.338486 0.660045
  In 0.333181 0.500412 0.841794
  In 0.499768 0.332936 0.832366
  In 0.493425 0.503535 0.662156
  Sb 0.412972 0.418114 0.749588
  As 0.414375 0.582798 0.919633
  Sb 0.582172 0.418405 0.918394
  Sb 0.578898 0.583873 0.749295
  In 0.331130 0.659539 0.000322
  In 0.333733 0.831333 0.168837
  In 0.503810 0.663866 0.165997
  In 0.499252 0.832592 0.000547
  Sb 0.416064 0.746144 0.083206
  Sb 0.418059 0.918843 0.251129
  Sb 0.585789 0.748663 0.253353
  Sb 0.582449 0.917618 0.084431
  In 0.329845 0.662617 0.338516
  In 0.336985 0.836074 0.504297
  In 0.498774 0.657893 0.499062
  In 0.504352 0.836822 0.336542
  Sb 0.417598 0.749205 0.418420
  As 0.417966 0.917580 0.580543
  Sb 0.581571 0.749753 0.577748
  As 0.583584 0.918127 0.416923
  In 0.338552 0.662004 0.662207
  In 0.332447 0.832106 0.833408
  In 0.493759 0.663126 0.837772
  In 0.498067 0.837297 0.660299
  Sb 0.417760 0.750100 0.747731
  Sb 0.415832 0.917385 0.917744
  Sb 0.582401 0.746963 0.918480
  Sb 0.584091 0.916676 0.748713
  In 0.668239 0.001665 0.002385
  In 0.673780 0.170097 0.173352
  In 0.841187 -0.000162 0.168633
  In 0.842263 0.166386 0.002390
  Sb 0.755088 0.084368 0.086475
  As 0.756151 0.248531 0.251521
  As 0.913678 0.085934 0.250124
  As 0.915776 0.248712 0.087663
  In 0.667364 -0.000225 0.339941
  In 0.670903 0.161808 0.493704
  In 0.829389 0.004259 0.493169
  In 0.833491 0.165939 0.332328
  As 0.751314 0.084575 0.412280
  Sb 0.750628 0.247027 0.581074
  Sb 0.914216 0.085713 0.579818
  As 0.915032 0.250183 0.411439
  In 0.671012 0.003123 0.669899
  In 0.671213 0.162944 0.830329
  In 0.834286 0.008321 0.835009
  In 0.828999 0.162430 0.670205
  As 0.751259 0.082373 0.751329
  Sb 0.753041 0.247150 0.917772
  As 0.917254 0.082019 0.919824
  Sb 0.916275 0.246414 0.751359
  In 0.666738 0.331463 0.001315
  In 0.663122 0.504563 0.162837
  In 0.837719 0.328346 0.171898
  In 0.833198 0.499356 0.002659
  Sb 0.751156 0.414053 0.087873
  Sb 0.749079 0.584057 0.251603
  As 0.917625 0.411354 0.251478
  Sb 0.916864 0.582246 0.088745
  In 0.672257 0.328284 0.327032
  In 0.663728 0.502126 0.493414
  In 0.837058 0.327651 0.495149
  In 0.836751 0.494241 0.327055
  Sb 0.751205 0.414191 0.414030
  Sb 0.747631 0.584800 0.579811
  Sb 0.919126 0.414600 0.579763
  Sb 0.916892 0.583214 0.411842
  In 0.666995 0.334387 0.662935
  In 0.665910 0.500069 0.831477
  In 0.833820 0.333758 0.833360
  In 0.835090 0.501488 0.662052
  Sb 0.751507 0.417597 0.747416
  Sb 0.748848 0.583233 0.918465
  Sb 0.917669 0.415065 0.919652
  Sb 0.918129 0.584216 0.750203
  In 0.664205 0.663874 0.005942
  In 0.667552 0.835296 0.169318
  In 0.835833 0.670954 0.172122
  In 0.837569 0.838850 0.004346
  Sb 0.751485 0.751695 0.084758
  Sb 0.753092 0.917420 0.253269
  As 0.915057 0.752215 0.249636
  As 0.917699 0.918041 0.084675
  In 0.667010 0.665513 0.342423
  In 0.665845 0.833982 0.491790
  In 0.830051 0.669719 0.494880
  In 0.832158 0.824935 0.333379
  As 0.748850 0.750173 0.416032
  Sb 0.748799 0.918348 0.579534
  Sb 0.917101 0.749746 0.581932
  Sb 0.914312 0.917118 0.412557
  In 0.664354 0.668573 0.666185
  In 0.666651 0.832524 0.834814
  In 0.834003 0.668283 0.835361
  In 0.834213 0.835930 0.665208
  Sb 0.750662 0.750871 0.749301
  Sb 0.752029 0.919273 0.917129
  Sb 0.919818 0.752385 0.918562
  Sb 0.917567 0.919327 0.752230
K_POINTS automatic
  2 2 2 0 0 0

HUBBARD (atomic)
U In-5p -1.0575
U Ga-4p -2.335
U As-4p 3.26
U Sb-5p 3.16
