&CONTROL
  calculation = 'scf',
  etot_conv_thr = 0.0001,
  forc_conv_thr = 0.00045,
  outdir = './tmp_In1.0Ga0.0As0.25Sb0.75_cube_3x3x3.0',
  prefix = 'In1.0Ga0.0As0.25Sb0.75_cube_3x3x3.0',
  pseudo_dir = '/work/i254/i254/gentles/data/pseudos/',
  restart_mode = 'from_scratch',
  verbosity = 'low',
/
&SYSTEM
  celldm(1) = 36.39170356934112,
  ecutwfc = 120,
  ibrav = 1,
  nat = 216,
  nbnd = 2160,
  ntyp = 4,
/
&ELECTRONS
  conv_thr = 1d-05,
  mixing_beta = 0.65,
/
&IONS
/
&CELL
  cell_dofree = 'all',
/
ATOMIC_SPECIES
  As  74.9216 As.pbe.NC-SR.standard.v0.5.UPF
  Ga  69.7230 Ga.pbe.NC-SR.standard.v0.5.UPF
  In  114.8180 In.pbe.NC-SR.standard.v0.5.UPF
  Sb  121.7600 Sb.pbe.NC-SR.standard.v0.5.UPF
ATOMIC_POSITIONS crystal
  In -0.001754 0.007046 0.000563
  In 0.003000 0.161513 0.163685
  In 0.160615 -0.000265 0.165365
  In 0.164066 0.159870 0.004031
  As 0.081927 0.080544 0.083439
  Sb 0.083498 0.247525 0.249475
  Sb 0.248141 0.081550 0.249382
  Sb 0.248503 0.248716 0.082919
  In 0.007739 0.000136 0.333178
  In 0.000407 0.156022 0.498610
  In 0.168339 0.001215 0.493210
  In 0.163883 0.162267 0.337313
  As 0.084454 0.080456 0.416209
  Sb 0.081519 0.245686 0.581645
  Sb 0.253048 0.082125 0.582635
  Sb 0.250959 0.246688 0.418194
  In -0.007722 0.003944 0.661831
  In -0.005839 0.162567 0.837544
  In 0.168384 -0.000210 0.831967
  In 0.166896 0.165262 0.667550
  Sb 0.079586 0.082461 0.750124
  Sb 0.083509 0.247309 0.918582
  Sb 0.253851 0.081657 0.917299
  Sb 0.254348 0.248345 0.749663
  In 0.004899 0.336555 0.003619
  In -0.000530 0.500358 0.157711
  In 0.162141 0.336136 0.163493
  In 0.167048 0.493145 -0.000014
  As 0.083856 0.417953 0.082340
  Sb 0.081078 0.582567 0.247530
  Sb 0.249597 0.415677 0.248549
  Sb 0.250739 0.583177 0.081313
  In -0.002826 0.330011 0.332531
  In -0.001950 0.498534 0.499967
  In 0.166299 0.331468 0.499979
  In 0.166087 0.499812 0.332571
  Sb 0.082011 0.414810 0.415804
  Sb 0.083819 0.583621 0.582530
  Sb 0.252785 0.413762 0.583240
  Sb 0.251203 0.584219 0.416447
  In -0.000483 0.331006 0.667642
  In -0.001918 0.501271 0.832734
  In 0.171978 0.332987 0.837588
  In 0.168227 0.499026 0.666712
  Sb 0.084730 0.414946 0.751897
  Sb 0.082589 0.582561 0.919643
  As 0.248808 0.415294 0.918488
  Sb 0.250846 0.583399 0.751698
  In -0.005477 0.664566 0.003872
  In 0.004048 0.840112 0.171354
  In 0.167029 0.667724 0.166417
  In 0.166546 0.835156 0.000532
  Sb 0.081316 0.751812 0.084483
  As 0.085672 0.920126 0.250825
  Sb 0.251488 0.753488 0.249547
  Sb 0.252416 0.918631 0.083517
  In -0.002012 0.668096 0.332301
  In -0.002820 0.834370 0.500993
  In 0.167284 0.670012 0.498704
  In 0.168944 0.842878 0.332355
  Sb 0.083464 0.754614 0.413764
  Sb 0.082655 0.920630 0.581789
  Sb 0.252142 0.754707 0.582428
  As 0.249728 0.918644 0.417385
  In -0.000046 0.667768 0.667144
  In -0.001399 0.835510 0.834625
  In 0.167421 0.667490 0.835955
  In 0.167220 0.836888 0.667357
  Sb 0.083869 0.751871 0.751527
  Sb 0.082301 0.920269 0.917838
  Sb 0.252676 0.752368 0.918297
  Sb 0.255996 0.918318 0.749259
  In 0.342362 -0.000257 0.000338
  In 0.336568 0.161725 0.162556
  In 0.502339 0.006607 0.167724
  In 0.496243 0.161974 0.004534
  As 0.418592 0.081026 0.084548
  Sb 0.419592 0.245966 0.248803
  As 0.584587 0.080828 0.251748
  Sb 0.582936 0.247738 0.085301
  In 0.329399 -0.003340 0.336658
  In 0.339771 0.169016 0.503745
  In 0.504639 -0.002263 0.504125
  In 0.504479 0.160069 0.331004
  Sb 0.418893 0.079902 0.418422
  As 0.419994 0.245725 0.585273
  As 0.582519 0.081435 0.583573
  Sb 0.584202 0.245869 0.419053
  In 0.342752 0.000071 0.664440
  In 0.339738 0.158848 0.827049
  In 0.497902 -0.004198 0.829293
  In 0.498098 0.159296 0.662336
  As 0.420826 0.078810 0.746655
  Sb 0.416543 0.246229 0.915460
  Sb 0.580541 0.080147 0.915617
  Sb 0.581905 0.245930 0.745182
  In 0.329764 0.333534 -0.004552
  In 0.334377 0.500820 0.166729
  In 0.503155 0.335795 0.169734
  In 0.501042 0.501067 -0.000437
  Sb 0.416803 0.415381 0.082187
  Sb 0.419161 0.585085 0.250041
  As 0.582747 0.415755 0.250413
  Sb 0.583519 0.586435 0.084608
  In 0.332833 0.329281 0.331501
  In 0.335885 0.499381 0.499739
  In 0.497757 0.327267 0.504729
  In 0.504619 0.496150 0.330839
  Sb 0.418361 0.412857 0.415703
  Sb 0.419311 0.583637 0.585670
  Sb 0.584684 0.415060 0.584947
  Sb 0.584298 0.583558 0.417105
  In 0.340686 0.328132 0.662959
  In 0.329157 0.495828 0.838639
  In 0.501303 0.330782 0.832406
  In 0.506236 0.503442 0.672404
  Sb 0.417207 0.417033 0.751179
  Sb 0.418102 0.584673 0.914628
  Sb 0.584313 0.416209 0.915575
  As 0.587393 0.585627 0.748766
  In 0.338423 0.670644 0.002805
  In 0.339050 0.831713 0.162894
  In 0.495911 0.673726 0.162298
  In 0.493837 0.835263 -0.002238
  As 0.417253 0.753119 0.080471
  Sb 0.418589 0.919211 0.249954
  Sb 0.582830 0.753127 0.249017
  Sb 0.582233 0.916278 0.082132
  In 0.335669 0.670211 0.334639
  In 0.335075 0.844783 0.501248
  In 0.500337 0.669705 0.500894
  In 0.506599 0.842089 0.336832
  Sb 0.418614 0.757720 0.417978
  As 0.421095 0.919811 0.583092
  Sb 0.585427 0.753469 0.584710
  As 0.583756 0.921876 0.418916
  In 0.335133 0.669819 0.668323
  In 0.338783 0.838572 0.838956
  In 0.506964 0.664523 0.828536
  In 0.500999 0.841138 0.665996
  Sb 0.420694 0.754147 0.751455
  As 0.418988 0.919350 0.916674
  Sb 0.584632 0.753943 0.915463
  As 0.581398 0.918341 0.749463
  In 0.668773 -0.006051 -0.006128
  In 0.663221 0.160136 0.170053
  In 0.832721 -0.000320 0.168600
  In 0.836449 0.162550 -0.003403
  Sb 0.749051 0.080684 0.081196
  Sb 0.746309 0.247230 0.252619
  Sb 0.917523 0.082595 0.252669
  Sb 0.918961 0.247879 0.081823
  In 0.662276 0.003337 0.338601
  In 0.668301 0.160450 0.504380
  In 0.830991 0.006449 0.499916
  In 0.826662 0.160639 0.338886
  As 0.745803 0.081643 0.419666
  As 0.749133 0.243179 0.582052
  As 0.913958 0.083830 0.579776
  Sb 0.914888 0.244269 0.418758
  In 0.657402 0.001122 0.668536
  In 0.665012 0.164807 0.831842
  In 0.832778 -0.000499 0.841145
  In 0.832570 0.164084 0.659334
  Sb 0.750336 0.080683 0.749403
  Sb 0.750330 0.247733 0.915462
  As 0.915453 0.081580 0.918038
  Sb 0.913491 0.246836 0.749400
  In 0.667847 0.331572 0.000249
  In 0.661709 0.496888 0.170854
  In 0.831957 0.328851 0.166768
  In 0.834837 0.504961 0.002776
  Sb 0.749422 0.417384 0.084828
  Sb 0.750863 0.584219 0.246525
  Sb 0.917411 0.416107 0.246141
  As 0.915580 0.583752 0.082758
  In 0.661401 0.336379 0.332630
  In 0.669431 0.504193 0.505225
  In 0.827948 0.325648 0.503275
  In 0.834117 0.499752 0.332009
  Sb 0.749295 0.416657 0.418258
  As 0.746597 0.585734 0.586966
  Sb 0.912768 0.414452 0.583774
  Sb 0.913867 0.585110 0.418710
  In 0.670990 0.325570 0.661789
  In 0.663368 0.503624 0.829948
  In 0.832311 0.334846 0.833039
  In 0.828302 0.503920 0.662504
  Sb 0.747669 0.416879 0.747205
  Sb 0.748771 0.586528 0.916092
  Sb 0.916917 0.417377 0.919345
  Sb 0.912579 0.585723 0.749020
  In 0.669915 0.673046 0.003521
  In 0.670175 0.830663 0.162636
  In 0.833717 0.668092 0.157749
  In 0.825848 0.835017 -0.000878
  As 0.751582 0.752045 0.082034
  Sb 0.745791 0.918289 0.252292
  Sb 0.915236 0.752169 0.246825
  Sb 0.915875 0.917713 0.082513
  In 0.666667 0.667418 0.331268
  In 0.663502 0.839786 0.495762
  In 0.826165 0.664242 0.505725
  In 0.832673 0.834953 0.333943
  Sb 0.748252 0.751136 0.417700
  Sb 0.746167 0.920746 0.583936
  Sb 0.912356 0.750677 0.585678
  Sb 0.916731 0.921103 0.416539
  In 0.668896 0.667063 0.670070
  In 0.667351 0.839341 0.828251
  In 0.826905 0.673668 0.828950
  In 0.824976 0.831991 0.670314
  As 0.744781 0.752612 0.750016
  As 0.749319 0.915197 0.913903
  Sb 0.912853 0.751052 0.917388
  Sb 0.912645 0.917717 0.750406
K_POINTS automatic
  2 2 2 0 0 0

HUBBARD (atomic)
U In-5p -1.0575
U Ga-4p -2.335
U As-4p 3.26
U Sb-5p 3.16
