&CONTROL
  calculation = 'scf',
  etot_conv_thr = 0.0001,
  forc_conv_thr = 0.00045,
  outdir = './tmp_In0.0Ga1.0As0.5Sb0.5_cube_3x3x3.4',
  prefix = 'In0.0Ga1.0As0.5Sb0.5_cube_3x3x3.4',
  pseudo_dir = '/work/i254/i254/gentles/data/pseudos/',
  restart_mode = 'from_scratch',
  verbosity = 'low',
/
&SYSTEM
  celldm(1) = 33.44182852074327,
  ecutwfc = 120,
  ibrav = 1,
  nat = 216,
  nbnd = 2160,
  ntyp = 4,
/
&ELECTRONS
  conv_thr = 1d-05,
  mixing_beta = 0.65,
/
&IONS
/
&CELL
  cell_dofree = 'all',
/
ATOMIC_SPECIES
  As  74.9216 As.pbe.NC-SR.standard.v0.5.UPF
  Ga  69.7230 Ga.pbe.NC-SR.standard.v0.5.UPF
  In  114.8180 In.pbe.NC-SR.standard.v0.5.UPF
  Sb  121.7600 Sb.pbe.NC-SR.standard.v0.5.UPF
ATOMIC_POSITIONS crystal
  Ga -0.001216 0.000166 0.008291
  Ga -0.001646 0.167813 0.159710
  Ga 0.167440 0.007456 0.169686
  Ga 0.160413 0.161863 0.001940
  As 0.081716 0.083150 0.085979
  Sb 0.080863 0.249989 0.253144
  As 0.254517 0.080758 0.251138
  Sb 0.251044 0.246713 0.084187
  Ga -0.003966 0.000879 0.336086
  Ga -0.000386 0.178745 0.500523
  Ga 0.163078 -0.005794 0.506323
  Ga 0.173863 0.161338 0.331287
  Sb 0.083181 0.084471 0.420394
  As 0.082066 0.258141 0.582968
  Sb 0.251360 0.085336 0.583438
  Sb 0.251339 0.249989 0.421470
  Ga 0.004313 -0.003525 0.658927
  Ga -0.002130 0.163208 0.830573
  Ga 0.173455 -0.005948 0.827085
  Ga 0.167156 0.179451 0.661959
  Sb 0.088261 0.083835 0.744008
  Sb 0.081303 0.251047 0.914210
  Sb 0.252339 0.084005 0.914688
  As 0.250375 0.255746 0.743165
  Ga -0.010179 0.334117 -0.002270
  Ga -0.004897 0.493206 0.176196
  Ga 0.167200 0.335205 0.167833
  Ga 0.163452 0.505463 -0.007701
  Sb 0.080166 0.418190 0.080861
  Sb 0.083411 0.582227 0.257348
  Sb 0.252728 0.421270 0.253546
  Sb 0.254504 0.582739 0.081452
  Ga -0.005141 0.337207 0.341065
  Ga -0.003341 0.492505 0.501515
  Ga 0.163754 0.338162 0.504409
  Ga 0.167234 0.500650 0.347440
  As 0.081609 0.415862 0.421461
  Sb 0.084551 0.582546 0.582056
  As 0.250536 0.415958 0.584532
  As 0.251699 0.584135 0.422149
  Ga 0.001601 0.338806 0.663259
  Ga 0.004544 0.494437 0.833067
  Ga 0.167901 0.333975 0.823190
  Ga 0.168452 0.492326 0.667158
  As 0.083865 0.415421 0.747802
  As 0.081261 0.581954 0.910718
  Sb 0.252538 0.418923 0.911836
  Sb 0.253923 0.583699 0.747023
  Ga 0.003230 0.660188 -0.004417
  Ga -0.007997 0.835935 0.160984
  Ga 0.169658 0.665191 0.169308
  Ga 0.171596 0.833294 -0.000742
  Sb 0.083669 0.748614 0.082573
  Sb 0.080842 0.916812 0.249230
  Sb 0.255943 0.748622 0.254992
  Sb 0.254111 0.920186 0.085858
  Ga 0.004401 0.673813 0.342114
  Ga 0.002848 0.827456 0.505038
  Ga 0.173050 0.669706 0.498832
  Ga 0.163017 0.829844 0.337740
  As 0.086593 0.750797 0.422953
  As 0.084446 0.909402 0.584640
  As 0.253303 0.749245 0.582599
  Sb 0.252426 0.915174 0.418297
  Ga -0.001393 0.673210 0.663934
  Ga 0.003538 0.829138 0.826042
  Ga 0.158975 0.664552 0.828954
  Ga 0.168898 0.829633 0.664150
  As 0.084482 0.749590 0.744767
  Sb 0.083115 0.916872 0.915868
  Sb 0.252972 0.746133 0.911771
  As 0.249415 0.910699 0.745340
  Ga 0.342387 0.003764 0.002095
  Ga 0.334702 0.158161 0.167909
  Ga 0.499873 0.002437 0.172260
  Ga 0.496240 0.160680 0.004387
  As 0.418998 0.080814 0.088277
  Sb 0.419492 0.247392 0.250230
  As 0.584447 0.081990 0.252978
  Sb 0.582868 0.249559 0.084948
  Ga 0.338515 0.000556 0.332042
  Ga 0.345311 0.166800 0.500433
  Ga 0.501805 0.007601 0.501205
  Ga 0.502874 0.158265 0.335661
  As 0.419258 0.082309 0.416189
  As 0.420345 0.252201 0.584711
  As 0.585681 0.084128 0.584582
  Sb 0.584375 0.247148 0.421084
  Ga 0.329589 -0.005729 0.669228
  Ga 0.328888 0.175345 0.826338
  Ga 0.504844 -0.005763 0.825913
  Ga 0.505531 0.171663 0.661402
  Sb 0.417840 0.085226 0.746841
  Sb 0.419087 0.253431 0.914772
  Sb 0.584219 0.082732 0.912863
  As 0.585412 0.253488 0.743206
  Ga 0.336732 0.338890 0.004234
  Ga 0.344456 0.502763 0.168678
  Ga 0.496217 0.340056 0.162206
  Ga 0.498765 0.497599 -0.006641
  As 0.418264 0.421377 0.081310
  As 0.420265 0.585827 0.253671
  Sb 0.583863 0.419934 0.251635
  Sb 0.580222 0.585296 0.083097
  Ga 0.336647 0.333812 0.336597
  Ga 0.328219 0.505682 0.507799
  Ga 0.502521 0.336054 0.508764
  Ga 0.502835 0.510278 0.337464
  Sb 0.417899 0.422846 0.422835
  As 0.417121 0.585183 0.581491
  As 0.584121 0.419016 0.585450
  As 0.583608 0.587413 0.420627
  Ga 0.334931 0.334452 0.664373
  Ga 0.345384 0.502092 0.830657
  Ga 0.504966 0.336210 0.824355
  Ga 0.494383 0.496994 0.660635
  As 0.418423 0.415761 0.745146
  As 0.422097 0.584411 0.915250
  As 0.580333 0.416741 0.910796
  Sb 0.579114 0.582165 0.746838
  Ga 0.344071 0.665876 -0.000675
  Ga 0.343360 0.835047 0.168695
  Ga 0.497548 0.670831 0.173459
  Ga 0.500301 0.824096 0.001442
  As 0.419570 0.748663 0.086318
  As 0.420743 0.917103 0.252503
  As 0.581462 0.748308 0.256581
  Sb 0.582727 0.915143 0.085705
  Ga 0.338466 0.659228 0.340200
  Ga 0.337043 0.823699 0.499337
  Ga 0.500603 0.667150 0.500322
  Ga 0.496455 0.829230 0.333831
  As 0.418545 0.744701 0.417488
  Sb 0.420696 0.913313 0.584193
  As 0.583081 0.747150 0.581891
  Sb 0.584185 0.917110 0.416869
  Ga 0.339870 0.670633 0.661134
  Ga 0.333926 0.830484 0.820654
  Ga 0.497310 0.670625 0.834263
  Ga 0.507926 0.827213 0.669426
  As 0.420025 0.749358 0.746411
  Sb 0.418305 0.911760 0.913278
  As 0.580359 0.751966 0.913111
  As 0.586234 0.914052 0.747184
  Ga 0.670390 -0.003636 -0.004113
  Ga 0.666286 0.166551 0.177703
  Ga 0.830532 -0.009971 0.170119
  Ga 0.833526 0.173802 0.005682
  Sb 0.749107 0.082257 0.087356
  As 0.751729 0.247671 0.254715
  Sb 0.911725 0.085446 0.250286
  As 0.915833 0.252350 0.084657
  Ga 0.670269 0.004282 0.331136
  Ga 0.670854 0.162400 0.505402
  Ga 0.822777 0.000213 0.499069
  Ga 0.829801 0.170932 0.341639
  As 0.748165 0.084905 0.417420
  As 0.748186 0.249263 0.584571
  Sb 0.913795 0.085772 0.580535
  As 0.914295 0.253916 0.420335
  Ga 0.664233 -0.002734 0.664821
  Ga 0.665074 0.168945 0.821863
  Ga 0.821657 0.000587 0.831121
  Ga 0.823285 0.165919 0.667391
  As 0.743421 0.081329 0.746029
  Sb 0.749414 0.254190 0.911398
  Sb 0.911675 0.082212 0.919182
  Sb 0.914446 0.252097 0.746713
  Ga 0.659347 0.337229 -0.006367
  Ga 0.671620 0.506414 0.169897
  Ga 0.835905 0.326584 0.173352
  Ga 0.837707 0.494761 -0.004883
  Sb 0.751445 0.413497 0.084440
  As 0.746746 0.586253 0.254343
  As 0.912953 0.412925 0.254665
  Sb 0.916472 0.579666 0.085818
  Ga 0.669916 0.328924 0.331748
  Ga 0.661226 0.504018 0.503024
  Ga 0.835247 0.329199 0.506984
  Ga 0.830523 0.500799 0.327348
  Sb 0.749719 0.416868 0.420182
  As 0.747493 0.582762 0.580973
  As 0.914368 0.414809 0.584208
  Sb 0.914698 0.583464 0.417559
  Ga 0.667379 0.334645 0.663649
  Ga 0.664385 0.492353 0.828421
  Ga 0.833361 0.344402 0.828488
  Ga 0.827483 0.497010 0.659770
  As 0.748094 0.417033 0.744248
  Sb 0.746334 0.580184 0.914967
  As 0.917468 0.417685 0.912039
  Sb 0.917238 0.579651 0.746148
  Ga 0.660231 0.672524 -0.006026
  Ga 0.662947 0.833000 0.179708
  Ga 0.827170 0.662769 0.170464
  Ga 0.832964 0.842055 -0.001748
  Sb 0.746851 0.754235 0.084505
  As 0.747085 0.915453 0.254939
  Sb 0.912490 0.751090 0.253374
  As 0.913357 0.918552 0.083069
  Ga 0.664595 0.667120 0.338964
  Ga 0.666291 0.829210 0.504145
  Ga 0.827983 0.668163 0.503087
  Ga 0.821309 0.831365 0.338322
  As 0.745217 0.748120 0.421291
  As 0.745056 0.916986 0.581086
  As 0.914246 0.749691 0.581329
  Sb 0.912924 0.912765 0.421174
  Ga 0.664627 0.663996 0.657736
  Ga 0.662239 0.836557 0.835128
  Ga 0.830372 0.665300 0.829381
  Ga 0.831798 0.835931 0.655425
  Sb 0.746238 0.752297 0.744478
  As 0.747748 0.915748 0.914035
  Sb 0.916224 0.749491 0.915322
  Sb 0.914412 0.918037 0.746377
K_POINTS automatic
  2 2 2 0 0 0

HUBBARD (atomic)
U In-5p -1.0150000000000001
U Ga-4p -2.8
U As-4p 5.84
U Sb-5p 4.89
