&CONTROL
  calculation = 'scf',
  etot_conv_thr = 0.0001,
  forc_conv_thr = 0.00045,
  outdir = './tmp_In1.0Ga0.0As0.25Sb0.75_cube_3x3x3.3',
  prefix = 'In1.0Ga0.0As0.25Sb0.75_cube_3x3x3.3',
  pseudo_dir = '/work/i254/i254/gentles/data/pseudos/',
  restart_mode = 'from_scratch',
  verbosity = 'low',
/
&SYSTEM
  celldm(1) = 36.38538642476654,
  ecutwfc = 120,
  ibrav = 1,
  nat = 216,
  nbnd = 2160,
  ntyp = 4,
/
&ELECTRONS
  conv_thr = 1d-05,
  mixing_beta = 0.65,
/
&IONS
/
&CELL
  cell_dofree = 'all',
/
ATOMIC_SPECIES
  As  74.9216 As.pbe.NC-SR.standard.v0.5.UPF
  Ga  69.7230 Ga.pbe.NC-SR.standard.v0.5.UPF
  In  114.8180 In.pbe.NC-SR.standard.v0.5.UPF
  Sb  121.7600 Sb.pbe.NC-SR.standard.v0.5.UPF
ATOMIC_POSITIONS crystal
  In 0.003016 0.001718 0.000565
  In 0.000778 0.165683 0.165055
  In 0.172685 -0.002805 0.170010
  In 0.170730 0.169426 -0.005593
  Sb 0.090308 0.084029 0.083221
  Sb 0.085284 0.250105 0.247753
  As 0.250244 0.083018 0.249160
  As 0.248817 0.248609 0.078133
  In 0.006170 -0.003054 0.329038
  In 0.008447 0.173595 0.505116
  In 0.166325 0.001031 0.502538
  In 0.170944 0.163793 0.329432
  Sb 0.084944 0.084636 0.416285
  As 0.087839 0.254678 0.586375
  Sb 0.250108 0.085694 0.585903
  Sb 0.250520 0.248769 0.419259
  In -0.000173 -0.003163 0.672191
  In 0.008436 0.171292 0.838487
  In 0.174483 0.001158 0.832599
  In 0.167487 0.175684 0.667048
  Sb 0.087395 0.085238 0.750632
  As 0.090315 0.251403 0.915767
  As 0.248529 0.085153 0.914683
  As 0.246034 0.252380 0.751765
  In 0.007400 0.328747 -0.004660
  In 0.002440 0.498525 0.172198
  In 0.170896 0.328899 0.159179
  In 0.167711 0.499309 -0.008507
  Sb 0.085726 0.417318 0.081111
  As 0.082637 0.580807 0.250526
  Sb 0.247642 0.416527 0.248486
  Sb 0.249326 0.583282 0.080332
  In -0.001596 0.336503 0.328684
  In 0.002635 0.500764 0.500935
  In 0.168676 0.334203 0.507076
  In 0.163563 0.503245 0.331658
  Sb 0.084621 0.415447 0.416902
  Sb 0.089081 0.581761 0.586302
  As 0.248723 0.414936 0.588223
  Sb 0.250103 0.582531 0.420548
  In 0.011068 0.335433 0.669074
  In 0.010082 0.497956 0.831801
  In 0.167376 0.333476 0.833151
  In 0.171263 0.494845 0.672329
  As 0.089528 0.415297 0.752001
  As 0.087582 0.579713 0.912716
  As 0.245743 0.415312 0.913928
  As 0.249227 0.579776 0.749671
  In 0.007591 0.660579 -0.006238
  In 0.006388 0.837285 0.169529
  In 0.162235 0.659880 0.169339
  In 0.170160 0.835995 0.003963
  Sb 0.084592 0.748194 0.083483
  As 0.087503 0.918931 0.247757
  Sb 0.247864 0.750227 0.246251
  As 0.249291 0.918540 0.083038
  In 0.005386 0.662925 0.330782
  In 0.001297 0.832232 0.499196
  In 0.171851 0.671873 0.505531
  In 0.165230 0.838700 0.328457
  Sb 0.087240 0.750093 0.415242
  Sb 0.085434 0.914041 0.586740
  As 0.252077 0.749080 0.587443
  Sb 0.250371 0.918099 0.416860
  In 0.002608 0.666353 0.666870
  In 0.000566 0.837260 0.829551
  In 0.168492 0.658314 0.832868
  In 0.175792 0.832448 0.668670
  Sb 0.087776 0.749505 0.750887
  Sb 0.086921 0.918195 0.915760
  Sb 0.249315 0.749479 0.916127
  As 0.250271 0.917035 0.750569
  In 0.323076 0.002276 -0.001342
  In 0.323043 0.167413 0.164741
  In 0.497722 0.000545 0.165285
  In 0.495349 0.168913 -0.000792
  Sb 0.410446 0.084177 0.082670
  Sb 0.410999 0.247427 0.250864
  Sb 0.582535 0.082654 0.250969
  Sb 0.582819 0.252458 0.082328
  In 0.332856 0.007214 0.333328
  In 0.337933 0.161995 0.497648
  In 0.497281 0.007726 0.500124
  In 0.494267 0.162416 0.336715
  As 0.415608 0.082592 0.416375
  Sb 0.414897 0.249090 0.586009
  As 0.578707 0.084787 0.583577
  Sb 0.579981 0.247902 0.418689
  In 0.328982 -0.002766 0.671111
  In 0.323909 0.167539 0.831428
  In 0.495960 -0.000022 0.835158
  In 0.503940 0.166744 0.667634
  Sb 0.413798 0.085099 0.750527
  Sb 0.410444 0.251521 0.913642
  Sb 0.581352 0.085758 0.915673
  As 0.581297 0.248933 0.748471
  In 0.323564 0.334506 -0.002517
  In 0.332726 0.500371 0.166255
  In 0.496354 0.332095 0.167983
  In 0.497067 0.497567 -0.002666
  Sb 0.412455 0.414222 0.081500
  Sb 0.416995 0.585480 0.249449
  Sb 0.582629 0.416990 0.250305
  Sb 0.580636 0.582396 0.082447
  In 0.331673 0.335903 0.335571
  In 0.330889 0.497480 0.510466
  In 0.497724 0.334721 0.502399
  In 0.502837 0.504838 0.336627
  Sb 0.415566 0.420560 0.419283
  As 0.412160 0.581970 0.585473
  Sb 0.580865 0.420223 0.585578
  As 0.580573 0.582598 0.419392
  In 0.325295 0.331658 0.668810
  In 0.324509 0.498239 0.834102
  In 0.500482 0.329044 0.828074
  In 0.495523 0.507253 0.667417
  Sb 0.413156 0.417407 0.749536
  Sb 0.412940 0.582844 0.915101
  Sb 0.583287 0.414879 0.914143
  As 0.579960 0.583414 0.748180
  In 0.336794 0.671863 0.002944
  In 0.331062 0.834338 0.158274
  In 0.495722 0.672130 0.162619
  In 0.493719 0.829627 0.002589
  As 0.414495 0.751936 0.083613
  Sb 0.412457 0.917105 0.249043
  Sb 0.581927 0.750528 0.251251
  Sb 0.582201 0.914986 0.082811
  In 0.331224 0.667260 0.333475
  In 0.329246 0.829014 0.504240
  In 0.495974 0.656916 0.501768
  In 0.497043 0.834466 0.335753
  Sb 0.415522 0.747319 0.419951
  Sb 0.413868 0.918732 0.582424
  Sb 0.580517 0.744981 0.583261
  Sb 0.582203 0.919427 0.418672
  In 0.328267 0.660770 0.664569
  In 0.328596 0.835045 0.828693
  In 0.500098 0.662309 0.828341
  In 0.497222 0.832298 0.664699
  Sb 0.412506 0.747134 0.747185
  Sb 0.410357 0.916159 0.918362
  Sb 0.579536 0.749150 0.915323
  Sb 0.580701 0.917919 0.748596
  In 0.666007 0.000097 -0.001833
  In 0.666086 0.168501 0.167277
  In 0.829780 -0.004228 0.170544
  In 0.832758 0.165656 -0.000211
  Sb 0.749064 0.081838 0.084953
  Sb 0.753975 0.252685 0.248560
  Sb 0.917480 0.080980 0.249798
  Sb 0.917970 0.251806 0.081383
  In 0.670017 -0.004560 0.329696
  In 0.661309 0.161802 0.504053
  In 0.836622 0.001701 0.499080
  In 0.835638 0.166920 0.334890
  Sb 0.748612 0.082835 0.416519
  Sb 0.747132 0.248538 0.585213
  Sb 0.922001 0.084607 0.584369
  Sb 0.919501 0.251903 0.418364
  In 0.660740 0.004798 0.661672
  In 0.662635 0.171888 0.829746
  In 0.837686 -0.001753 0.828577
  In 0.836512 0.167965 0.667863
  Sb 0.748600 0.084416 0.748681
  Sb 0.749902 0.251737 0.916130
  Sb 0.919401 0.084608 0.915197
  Sb 0.923264 0.251918 0.750936
  In 0.671633 0.338538 0.003410
  In 0.669515 0.496864 0.162672
  In 0.836518 0.341613 0.165155
  In 0.832388 0.495311 0.002862
  As 0.752187 0.417408 0.084252
  Sb 0.750539 0.581676 0.249903
  As 0.919131 0.417451 0.248098
  Sb 0.920309 0.581180 0.082815
  In 0.665807 0.331011 0.334057
  In 0.663072 0.502859 0.496688
  In 0.832396 0.333489 0.502190
  In 0.838349 0.495518 0.329047
  Sb 0.750086 0.417356 0.415877
  Sb 0.748801 0.583134 0.583264
  Sb 0.920955 0.414842 0.585335
  Sb 0.918150 0.582587 0.415554
  In 0.660945 0.330777 0.670173
  In 0.660424 0.504165 0.828534
  In 0.835697 0.335232 0.832623
  In 0.834111 0.498270 0.666206
  Sb 0.747295 0.416847 0.750059
  Sb 0.748949 0.580895 0.916954
  Sb 0.921836 0.416687 0.916371
  Sb 0.920303 0.580633 0.750784
  In 0.665452 0.666934 -0.000199
  In 0.669456 0.836829 0.171371
  In 0.836087 0.667285 0.166181
  In 0.836991 0.831904 0.000695
  Sb 0.749860 0.751081 0.084460
  As 0.750232 0.915876 0.250273
  Sb 0.920334 0.751470 0.250592
  Sb 0.918923 0.917630 0.085380
  In 0.660406 0.660652 0.336884
  In 0.665366 0.832115 0.501770
  In 0.832867 0.667844 0.499282
  In 0.829981 0.835236 0.329500
  Sb 0.747183 0.749482 0.414268
  Sb 0.750533 0.918624 0.584197
  Sb 0.916853 0.750948 0.584801
  Sb 0.918236 0.916188 0.413599
  In 0.662992 0.662863 0.670807
  In 0.665655 0.834280 0.833372
  In 0.835215 0.664377 0.834456
  In 0.836344 0.837551 0.671421
  Sb 0.750332 0.748897 0.751065
  Sb 0.753248 0.916673 0.915732
  Sb 0.921315 0.748957 0.915170
  As 0.918352 0.916899 0.750625
K_POINTS automatic
  2 2 2 0 0 0

HUBBARD (atomic)
U In-5p -1.0575
U Ga-4p -2.335
U As-4p 3.26
U Sb-5p 3.16
