&CONTROL
  calculation = 'scf',
  etot_conv_thr = 0.0001,
  forc_conv_thr = 0.00045,
  outdir = './tmp_In0.0Ga1.0As0.25Sb0.75_cube_3x3x3.4',
  prefix = 'In0.0Ga1.0As0.25Sb0.75_cube_3x3x3.4',
  pseudo_dir = '/work/i254/i254/gentles/data/pseudos/',
  restart_mode = 'from_scratch',
  verbosity = 'low',
/
&SYSTEM
  celldm(1) = 34.040951758708964,
  ecutwfc = 120,
  ibrav = 1,
  nat = 216,
  nbnd = 2160,
  ntyp = 4,
/
&ELECTRONS
  conv_thr = 1d-05,
  mixing_beta = 0.65,
/
&IONS
/
&CELL
  cell_dofree = 'all',
/
ATOMIC_SPECIES
  As  74.9216 As.pbe.NC-SR.standard.v0.5.UPF
  Ga  69.7230 Ga.pbe.NC-SR.standard.v0.5.UPF
  In  114.8180 In.pbe.NC-SR.standard.v0.5.UPF
  Sb  121.7600 Sb.pbe.NC-SR.standard.v0.5.UPF
ATOMIC_POSITIONS crystal
  Ga -0.005498 -0.002955 0.002084
  Ga -0.000660 0.167166 0.163852
  Ga 0.167302 -0.001375 0.166473
  Ga 0.167977 0.170934 0.002835
  Sb 0.083420 0.081970 0.081923
  Sb 0.082909 0.250476 0.248760
  Sb 0.249655 0.085167 0.248332
  As 0.250985 0.248250 0.080388
  Ga 0.004365 0.002706 0.335338
  Ga 0.004733 0.163404 0.495296
  Ga 0.157207 -0.001310 0.501051
  Ga 0.161157 0.161648 0.337264
  As 0.082601 0.080972 0.417204
  Sb 0.082146 0.247211 0.588526
  Sb 0.245412 0.083088 0.584305
  Sb 0.247286 0.248971 0.416168
  Ga 0.006647 0.001929 0.668054
  Ga -0.003104 0.165126 0.826074
  Ga 0.160263 0.007476 0.833422
  Ga 0.166603 0.166252 0.677342
  As 0.081606 0.085079 0.750818
  Sb 0.081498 0.248868 0.912930
  Sb 0.250653 0.087191 0.917878
  As 0.249349 0.248564 0.753220
  Ga -0.004330 0.337587 -0.008008
  Ga -0.007879 0.499278 0.166437
  Ga 0.170906 0.328234 0.159233
  Ga 0.165442 0.510338 0.000587
  Sb 0.081543 0.418109 0.081009
  Sb 0.082530 0.585208 0.245217
  Sb 0.249882 0.416382 0.244810
  As 0.246957 0.588613 0.082137
  Ga -0.005269 0.339185 0.326599
  Ga -0.002396 0.499619 0.502840
  Ga 0.163551 0.332301 0.501607
  Ga 0.164580 0.499004 0.330206
  Sb 0.080220 0.416763 0.415997
  Sb 0.082055 0.584535 0.585358
  Sb 0.248545 0.415215 0.585017
  Sb 0.249218 0.583353 0.413644
  Ga -0.007127 0.328264 0.673139
  Ga 0.000038 0.500344 0.845034
  Ga 0.169707 0.329863 0.830182
  Ga 0.163587 0.498482 0.668265
  Sb 0.079592 0.415519 0.753760
  As 0.080981 0.584984 0.920499
  Sb 0.247991 0.416027 0.920046
  Sb 0.244972 0.583426 0.753722
  Ga 0.003979 0.662441 0.005385
  Ga -0.001438 0.833219 0.155833
  Ga 0.168008 0.671812 0.161092
  Ga 0.160921 0.829792 0.003406
  As 0.082035 0.749027 0.082305
  Sb 0.081879 0.914026 0.246790
  As 0.249444 0.748751 0.243656
  Sb 0.250741 0.913827 0.083225
  Ga -0.000018 0.668478 0.332211
  Ga 0.004003 0.839682 0.506754
  Ga 0.165864 0.666104 0.499183
  Ga 0.170445 0.827573 0.324473
  Sb 0.083873 0.752917 0.416850
  As 0.082077 0.918973 0.586914
  Sb 0.246861 0.752058 0.584563
  Sb 0.245639 0.916780 0.414646
  Ga 0.003335 0.669696 0.673366
  Ga 0.003948 0.827571 0.830628
  Ga 0.156212 0.666257 0.835635
  Ga 0.157480 0.833869 0.668105
  As 0.082963 0.749500 0.751230
  Sb 0.081101 0.916362 0.916770
  Sb 0.246181 0.746453 0.920486
  Sb 0.243316 0.918233 0.751623
  Ga 0.336456 0.004079 0.004578
  Ga 0.331835 0.167054 0.157601
  Ga 0.499168 0.009457 0.163616
  Ga 0.490744 0.166008 -0.000542
  As 0.414896 0.086203 0.082662
  Sb 0.418089 0.246796 0.245957
  As 0.583947 0.083528 0.244598
  Sb 0.584396 0.246056 0.079936
  Ga 0.333412 -0.000739 0.331627
  Ga 0.332800 0.165954 0.499611
  Ga 0.501260 0.000434 0.498208
  Ga 0.507654 0.163005 0.326477
  Sb 0.418973 0.084112 0.413408
  Sb 0.415237 0.249216 0.586344
  Sb 0.585478 0.084884 0.582808
  Sb 0.586607 0.249206 0.417214
  Ga 0.331051 0.000131 0.668052
  Ga 0.332914 0.174808 0.834857
  Ga 0.502642 0.000016 0.836118
  Ga 0.502125 0.166208 0.668993
  Sb 0.415674 0.084740 0.753347
  As 0.413418 0.248313 0.918612
  Sb 0.585890 0.085160 0.920686
  Sb 0.586030 0.251983 0.753091
  Ga 0.332284 0.325434 -0.000059
  Ga 0.326973 0.505976 0.158579
  Ga 0.502903 0.333267 0.165820
  Ga 0.501831 0.498645 0.000041
  Sb 0.414685 0.415161 0.081789
  Sb 0.413984 0.587059 0.244738
  Sb 0.585761 0.417257 0.250467
  Sb 0.582157 0.586271 0.084179
  Ga 0.333178 0.331233 0.330156
  Ga 0.332706 0.499282 0.499694
  Ga 0.500481 0.331872 0.501018
  Ga 0.497896 0.501669 0.330047
  Sb 0.416654 0.415564 0.415506
  Sb 0.415924 0.582644 0.585274
  Sb 0.589777 0.414884 0.582613
  Sb 0.585544 0.583440 0.413291
  Ga 0.327124 0.327914 0.672409
  Ga 0.332237 0.500385 0.836378
  Ga 0.495069 0.328023 0.840642
  Ga 0.502772 0.497679 0.667127
  Sb 0.415411 0.414026 0.752661
  Sb 0.416307 0.584720 0.920487
  Sb 0.586042 0.412675 0.917023
  Sb 0.587453 0.581767 0.752045
  Ga 0.333261 0.666831 0.009100
  Ga 0.333673 0.826050 0.165261
  Ga 0.499465 0.675377 0.165637
  Ga 0.494645 0.829625 0.005963
  As 0.415219 0.749052 0.085611
  Sb 0.418119 0.916196 0.245395
  As 0.582351 0.749673 0.247347
  Sb 0.583178 0.917645 0.084256
  Ga 0.327148 0.670917 0.326219
  Ga 0.332557 0.835150 0.499403
  Ga 0.500302 0.665583 0.499537
  Ga 0.504541 0.830023 0.326843
  Sb 0.415823 0.750363 0.412851
  Sb 0.417534 0.918056 0.584460
  Sb 0.585035 0.750462 0.583960
  Sb 0.584367 0.917214 0.412084
  Ga 0.330234 0.667427 0.669475
  Ga 0.328073 0.834156 0.836738
  Ga 0.501710 0.666828 0.835625
  Ga 0.501305 0.833735 0.668834
  Sb 0.415436 0.751065 0.752864
  Sb 0.415927 0.916821 0.919703
  Sb 0.585176 0.752374 0.918665
  Sb 0.587758 0.916313 0.753090
  Ga 0.674682 -0.001898 0.000037
  Ga 0.667475 0.157167 0.162999
  Ga 0.834602 -0.000924 0.156054
  Ga 0.825123 0.168115 0.000238
  As 0.751253 0.081079 0.080426
  Sb 0.749230 0.249051 0.247658
  Sb 0.916868 0.080836 0.246856
  Sb 0.914823 0.252396 0.080557
  Ga 0.662628 0.006159 0.326757
  Ga 0.673457 0.173035 0.507414
  Ga 0.833675 0.000654 0.501752
  Ga 0.833815 0.165535 0.331699
  Sb 0.748491 0.085121 0.417606
  As 0.753048 0.252754 0.586911
  Sb 0.918999 0.086546 0.584879
  Sb 0.916762 0.251335 0.415271
  Ga 0.668117 0.002943 0.668611
  Ga 0.672493 0.172359 0.839285
  Ga 0.831304 -0.004069 0.837507
  Ga 0.835754 0.176337 0.668267
  Sb 0.753292 0.086915 0.752101
  As 0.754540 0.251488 0.916030
  Sb 0.913455 0.084570 0.917622
  As 0.914247 0.250760 0.753754
  Ga 0.674446 0.327582 -0.004007
  Ga 0.667634 0.500361 0.163872
  Ga 0.837150 0.337458 0.170092
  Ga 0.843746 0.500208 -0.002003
  Sb 0.754515 0.417480 0.080502
  Sb 0.752874 0.581616 0.248127
  As 0.914355 0.418718 0.249078
  As 0.920844 0.580256 0.080779
  Ga 0.671504 0.336622 0.337299
  Ga 0.673480 0.497071 0.494306
  Ga 0.826456 0.331937 0.500500
  Ga 0.832723 0.491005 0.333423
  As 0.752737 0.414181 0.416614
  Sb 0.751649 0.582150 0.587145
  Sb 0.912623 0.413503 0.585748
  Sb 0.915774 0.580510 0.414172
  Ga 0.676906 0.333284 0.669377
  Ga 0.673385 0.490797 0.829494
  Ga 0.835965 0.332796 0.835579
  Ga 0.831735 0.494967 0.674902
  As 0.755209 0.410963 0.752965
  Sb 0.753149 0.580015 0.914660
  As 0.916033 0.417040 0.915263
  Sb 0.917825 0.583306 0.755431
  Ga 0.668957 0.664959 -0.001350
  Ga 0.662886 0.828967 0.170572
  Ga 0.839349 0.659985 0.158676
  Ga 0.835015 0.841610 -0.000469
  Sb 0.752344 0.750870 0.082342
  Sb 0.749583 0.919431 0.246353
  Sb 0.917235 0.749897 0.243774
  As 0.915934 0.917160 0.080359
  Ga 0.663977 0.670574 0.325282
  Ga 0.668154 0.835064 0.498464
  Ga 0.834884 0.665268 0.500019
  Ga 0.835222 0.835353 0.330519
  Sb 0.750547 0.750016 0.413794
  Sb 0.750787 0.916114 0.586211
  Sb 0.918217 0.750447 0.585947
  Sb 0.919399 0.918243 0.417861
  Ga 0.671652 0.671923 0.672715
  Ga 0.676137 0.834864 0.837318
  Ga 0.830073 0.671764 0.831678
  Ga 0.830520 0.829483 0.672296
  As 0.750893 0.752452 0.753917
  As 0.752942 0.917282 0.918192
  Sb 0.918202 0.749281 0.920125
  Sb 0.918896 0.915669 0.751091
K_POINTS automatic
  2 2 2 0 0 0

HUBBARD (atomic)
U In-5p -1.0575
U Ga-4p -2.335
U As-4p 5.84
U Sb-5p 4.89
