&CONTROL
  calculation = 'scf',
  etot_conv_thr = 0.0001,
  forc_conv_thr = 0.00045,
  outdir = './tmp_In0.0Ga1.0As0.5Sb0.5_cube_3x3x3.0',
  prefix = 'In0.0Ga1.0As0.5Sb0.5_cube_3x3x3.0',
  pseudo_dir = '/work/i254/i254/gentles/data/pseudos/',
  restart_mode = 'from_scratch',
  verbosity = 'low',
/
&SYSTEM
  celldm(1) = 33.45236692935936,
  ecutwfc = 120,
  ibrav = 1,
  nat = 216,
  nbnd = 2160,
  ntyp = 4,
/
&ELECTRONS
  conv_thr = 1d-05,
  mixing_beta = 0.65,
/
&IONS
/
&CELL
  cell_dofree = 'all',
/
ATOMIC_SPECIES
  As  74.9216 As.pbe.NC-SR.standard.v0.5.UPF
  Ga  69.7230 Ga.pbe.NC-SR.standard.v0.5.UPF
  In  114.8180 In.pbe.NC-SR.standard.v0.5.UPF
  Sb  121.7600 Sb.pbe.NC-SR.standard.v0.5.UPF
ATOMIC_POSITIONS crystal
  Ga 0.000394 -0.000479 0.010695
  Ga 0.011115 0.166796 0.170003
  Ga 0.169045 0.007901 0.172446
  Ga 0.162908 0.162003 0.007469
  As 0.084961 0.081497 0.088600
  As 0.087212 0.250905 0.251541
  As 0.251514 0.086658 0.253192
  Sb 0.250661 0.250012 0.088753
  Ga -0.000505 -0.003370 0.343766
  Ga 0.004355 0.160746 0.502034
  Ga 0.157649 -0.003881 0.499763
  Ga 0.166513 0.166513 0.335191
  As 0.083396 0.081846 0.417804
  As 0.084943 0.249410 0.577720
  Sb 0.248526 0.083323 0.578698
  As 0.249110 0.247939 0.413027
  Ga -0.006332 -0.006023 0.662549
  Ga -0.001099 0.165925 0.833941
  Ga 0.167639 -0.002780 0.835321
  Ga 0.162045 0.171220 0.661309
  Sb 0.081825 0.079837 0.746663
  Sb 0.084987 0.251602 0.920450
  Sb 0.251816 0.084287 0.918893
  Sb 0.251195 0.252147 0.747317
  Ga 0.005177 0.338400 0.009325
  Ga 0.007984 0.500304 0.172264
  Ga 0.165769 0.338812 0.172450
  Ga 0.162528 0.500605 0.000054
  As 0.086373 0.419730 0.088585
  As 0.087457 0.584222 0.253341
  As 0.249970 0.417626 0.251764
  Sb 0.249356 0.584483 0.086930
  Ga 0.001399 0.333213 0.326780
  Ga -0.007186 0.504701 0.492199
  Ga 0.171010 0.329331 0.498699
  Ga 0.174495 0.505196 0.330061
  Sb 0.086421 0.418600 0.413287
  Sb 0.082451 0.585759 0.578320
  As 0.249848 0.417665 0.576498
  As 0.252880 0.585847 0.412711
  Ga 0.005502 0.329589 0.660142
  Ga 0.005547 0.507406 0.834848
  Ga 0.174027 0.338142 0.839267
  Ga 0.171007 0.496119 0.658633
  Sb 0.086925 0.416388 0.749456
  As 0.083200 0.586825 0.918111
  As 0.247649 0.422007 0.921136
  Sb 0.250886 0.582901 0.750472
  Ga 0.004267 0.672337 -0.002094
  Ga -0.002606 0.834128 0.159347
  Ga 0.162218 0.670687 0.171677
  Ga 0.165416 0.828517 0.006666
  As 0.082272 0.749975 0.085545
  Sb 0.082755 0.915581 0.250716
  As 0.250718 0.745547 0.251943
  Sb 0.252146 0.915957 0.090587
  Ga 0.005615 0.663013 0.336806
  Ga 0.000893 0.830248 0.497373
  Ga 0.167863 0.666387 0.488551
  Ga 0.166933 0.823389 0.330644
  As 0.083810 0.748424 0.414653
  As 0.076494 0.913678 0.580606
  Sb 0.248690 0.749207 0.580719
  Sb 0.248641 0.916371 0.412367
  Ga -0.000400 0.677451 0.662417
  Ga -0.006527 0.831784 0.827541
  Ga 0.157755 0.667503 0.831085
  Ga 0.156930 0.834038 0.663352
  As 0.078840 0.753499 0.748530
  Sb 0.079750 0.913132 0.919348
  Sb 0.251349 0.745755 0.917249
  Sb 0.250539 0.915009 0.745909
  Ga 0.337811 0.002992 0.006356
  Ga 0.337841 0.163048 0.173666
  Ga 0.495848 -0.006165 0.165338
  Ga 0.498952 0.164284 0.010393
  As 0.417309 0.081541 0.089685
  As 0.414515 0.248603 0.252963
  Sb 0.579722 0.082937 0.249611
  As 0.581160 0.246614 0.085299
  Ga 0.336610 0.002106 0.327203
  Ga 0.333316 0.163551 0.487297
  Ga 0.500671 -0.000759 0.489625
  Ga 0.495715 0.170314 0.335757
  As 0.417272 0.081900 0.410247
  Sb 0.416514 0.248143 0.579300
  Sb 0.583518 0.083121 0.581711
  As 0.581377 0.248750 0.415007
  Ga 0.338499 0.004206 0.666505
  Ga 0.338512 0.163916 0.828380
  Ga 0.496995 0.002258 0.829758
  Ga 0.499016 0.165772 0.673268
  As 0.417709 0.083017 0.749657
  Sb 0.418837 0.250676 0.917898
  Sb 0.584854 0.081763 0.918456
  As 0.584668 0.246435 0.749839
  Ga 0.327520 0.338853 -0.002420
  Ga 0.333425 0.500052 0.176055
  Ga 0.498114 0.323095 0.167918
  Ga 0.503642 0.504448 -0.000133
  Sb 0.417407 0.417265 0.084960
  As 0.414018 0.587902 0.250027
  Sb 0.578838 0.417777 0.248937
  As 0.579901 0.585076 0.087986
  Ga 0.326495 0.329637 0.328630
  Ga 0.328188 0.506267 0.500186
  Ga 0.503856 0.331451 0.493136
  Ga 0.492778 0.506830 0.329241
  Sb 0.411220 0.417468 0.414411
  As 0.413682 0.587543 0.578726
  Sb 0.585395 0.416743 0.581989
  Sb 0.583313 0.588632 0.415309
  Ga 0.330387 0.339921 0.658721
  Ga 0.333307 0.502613 0.846064
  Ga 0.509281 0.333066 0.833024
  Ga 0.493274 0.505677 0.659035
  Sb 0.416013 0.419051 0.751952
  As 0.419466 0.584670 0.921006
  As 0.580825 0.417846 0.919463
  Sb 0.581089 0.585375 0.746747
  Ga 0.343193 0.666575 0.004786
  Ga 0.336341 0.826899 0.175346
  Ga 0.498634 0.666887 0.169388
  Ga 0.499845 0.833519 0.011536
  As 0.418538 0.749881 0.090210
  As 0.417732 0.913019 0.251179
  As 0.580852 0.749409 0.250739
  As 0.582480 0.916780 0.086174
  Ga 0.334442 0.667149 0.333190
  Ga 0.336716 0.830826 0.493939
  Ga 0.495499 0.672417 0.499955
  Ga 0.499891 0.831357 0.333469
  As 0.416725 0.750050 0.413289
  Sb 0.421255 0.914681 0.581473
  As 0.583584 0.749592 0.579345
  As 0.581648 0.911605 0.415785
  Ga 0.339432 0.667364 0.665977
  Ga 0.336763 0.827327 0.827530
  Ga 0.492121 0.667263 0.833014
  Ga 0.504863 0.824275 0.666411
  As 0.418709 0.747855 0.747150
  Sb 0.417199 0.914510 0.918075
  Sb 0.579905 0.749888 0.920081
  Sb 0.586498 0.916549 0.748744
  Ga 0.670295 -0.006759 0.003433
  Ga 0.666945 0.163783 0.159078
  Ga 0.832932 -0.002978 0.160579
  Ga 0.826612 0.161891 0.005047
  As 0.748189 0.078018 0.083365
  Sb 0.748169 0.250421 0.249309
  Sb 0.920684 0.078889 0.248905
  Sb 0.917494 0.249006 0.088611
  Ga 0.660814 -0.005051 0.337975
  Ga 0.664765 0.173998 0.498943
  Ga 0.838160 -0.005565 0.503335
  Ga 0.832532 0.162414 0.331814
  Sb 0.748866 0.079999 0.420551
  As 0.748177 0.245098 0.583536
  As 0.917462 0.079080 0.581635
  Sb 0.918389 0.247346 0.417269
  Ga 0.675909 -0.003379 0.661227
  Ga 0.668449 0.162537 0.824003
  Ga 0.829919 -0.005199 0.827636
  Ga 0.829944 0.157536 0.659387
  As 0.751547 0.078640 0.745091
  Sb 0.745841 0.249931 0.916514
  Sb 0.914182 0.079288 0.918763
  Sb 0.915029 0.246211 0.743265
  Ga 0.655092 0.333134 0.002320
  Ga 0.664791 0.509623 0.169587
  Ga 0.838207 0.341044 0.174223
  Ga 0.833990 0.500678 0.001074
  Sb 0.746504 0.418044 0.086111
  As 0.748823 0.586150 0.252592
  As 0.921788 0.421977 0.251100
  Sb 0.920498 0.585747 0.086452
  Ga 0.659830 0.331200 0.336674
  Ga 0.672742 0.507115 0.501997
  Ga 0.829020 0.327232 0.505229
  Ga 0.837953 0.505625 0.329181
  Sb 0.752358 0.417328 0.415431
  As 0.752514 0.590201 0.579684
  Sb 0.914661 0.418283 0.582848
  As 0.914517 0.588080 0.413226
  Ga 0.666065 0.322564 0.665911
  Ga 0.660479 0.495838 0.836494
  Ga 0.836018 0.333918 0.832715
  Ga 0.827916 0.508223 0.663385
  Sb 0.747135 0.415922 0.748083
  Sb 0.747377 0.584396 0.917505
  Sb 0.922015 0.418511 0.917568
  Sb 0.917456 0.589776 0.749294
  Ga 0.660618 0.662967 0.006989
  Ga 0.656886 0.832986 0.168830
  Ga 0.829141 0.665645 0.172710
  Ga 0.839040 0.837445 -0.004805
  Sb 0.749213 0.753351 0.083330
  Sb 0.749300 0.914321 0.252117
  Sb 0.918662 0.750234 0.254209
  As 0.915396 0.916017 0.081672
  Ga 0.670823 0.674412 0.330753
  Ga 0.665599 0.833092 0.499121
  Ga 0.833923 0.669993 0.497314
  Ga 0.835248 0.834500 0.344133
  As 0.749942 0.752518 0.418827
  As 0.752423 0.913687 0.578918
  As 0.917028 0.752246 0.577491
  As 0.918696 0.914544 0.422265
  Ga 0.667357 0.669216 0.657655
  Ga 0.670592 0.837415 0.840546
  Ga 0.836193 0.673796 0.839016
  Ga 0.836751 0.835743 0.658215
  Sb 0.751463 0.753944 0.747461
  As 0.753549 0.916993 0.917867
  As 0.919551 0.753284 0.917012
  As 0.913103 0.914405 0.745413
K_POINTS automatic
  2 2 2 0 0 0

HUBBARD (atomic)
U In-5p -1.0150000000000001
U Ga-4p -2.8
U As-4p 5.84
U Sb-5p 4.89
