&CONTROL
  calculation = 'scf',
  etot_conv_thr = 0.0001,
  forc_conv_thr = 0.00045,
  outdir = './tmp_In1.0Ga0.0As0.5Sb0.5_cube_3x3x3.2',
  prefix = 'In1.0Ga0.0As0.5Sb0.5_cube_3x3x3.2',
  pseudo_dir = '/work/i254/i254/gentles/data/pseudos/',
  restart_mode = 'from_scratch',
  verbosity = 'low',
/
&SYSTEM
  celldm(1) = 35.74587743524215,
  ecutwfc = 120,
  ibrav = 1,
  nat = 216,
  nbnd = 2160,
  ntyp = 4,
/
&ELECTRONS
  conv_thr = 1d-05,
  mixing_beta = 0.65,
/
&IONS
/
&CELL
  cell_dofree = 'all',
/
ATOMIC_SPECIES
  As  74.9216 As.pbe.NC-SR.standard.v0.5.UPF
  Ga  69.7230 Ga.pbe.NC-SR.standard.v0.5.UPF
  In  114.8180 In.pbe.NC-SR.standard.v0.5.UPF
  Sb  121.7600 Sb.pbe.NC-SR.standard.v0.5.UPF
ATOMIC_POSITIONS crystal
  In 0.010512 -0.002592 -0.002196
  In 0.002602 0.156470 0.168087
  In 0.170367 -0.000813 0.170655
  In 0.161889 0.160920 0.006552
  As 0.085651 0.076106 0.087448
  Sb 0.087485 0.245801 0.251304
  As 0.253114 0.081428 0.251617
  Sb 0.251891 0.246434 0.087417
  In -0.002340 -0.002736 0.331067
  In 0.008439 0.168755 0.503904
  In 0.169334 -0.008920 0.501231
  In 0.177644 0.164907 0.335757
  Sb 0.087126 0.079509 0.416214
  As 0.087622 0.252352 0.583329
  Sb 0.252661 0.083024 0.581422
  As 0.253309 0.250364 0.418221
  In 0.004878 -0.006792 0.659771
  In -0.002209 0.170135 0.826187
  In 0.169017 -0.009108 0.832105
  In 0.169385 0.173027 0.664820
  Sb 0.086482 0.081423 0.746866
  Sb 0.084633 0.250079 0.915300
  Sb 0.249878 0.080332 0.917928
  As 0.253001 0.253350 0.743504
  In -0.001185 0.339021 -0.002599
  In 0.000399 0.512153 0.166516
  In 0.169661 0.337708 0.170745
  In 0.173024 0.507763 0.001742
  Sb 0.085007 0.423103 0.084098
  As 0.086645 0.584152 0.252138
  As 0.249450 0.417516 0.252606
  As 0.253107 0.585236 0.085325
  In 0.003048 0.333134 0.334587
  In 0.000755 0.503667 0.506267
  In 0.173690 0.331295 0.503544
  In 0.171762 0.503683 0.332165
  Sb 0.087896 0.418978 0.420472
  As 0.086467 0.585433 0.583031
  As 0.252226 0.417364 0.584147
  As 0.248790 0.584263 0.419724
  In -0.000082 0.331580 0.660256
  In -0.001314 0.496175 0.836213
  In 0.172398 0.330694 0.826950
  In 0.171821 0.504092 0.661328
  Sb 0.084869 0.417278 0.745327
  Sb 0.084174 0.587162 0.914877
  Sb 0.252252 0.419260 0.913716
  As 0.252791 0.583773 0.745351
  In -0.006779 0.669427 -0.001489
  In 0.009027 0.836894 0.174214
  In 0.167942 0.661113 0.167459
  In 0.169594 0.839731 -0.000570
  Sb 0.085419 0.750383 0.082813
  As 0.087143 0.920079 0.254289
  Sb 0.249440 0.750524 0.252712
  As 0.249735 0.918928 0.083959
  In 0.007129 0.664097 0.337704
  In 0.004099 0.836372 0.496003
  In 0.163132 0.665659 0.496393
  In 0.164852 0.837297 0.337410
  As 0.084538 0.751698 0.416478
  As 0.086925 0.911988 0.581516
  Sb 0.249945 0.750463 0.582122
  As 0.251305 0.915602 0.416923
  In 0.010338 0.668810 0.667308
  In 0.003976 0.826716 0.837935
  In 0.170215 0.666982 0.823724
  In 0.165090 0.834615 0.669688
  As 0.086524 0.751465 0.750735
  As 0.086131 0.913076 0.914587
  Sb 0.253044 0.750798 0.914481
  As 0.251295 0.912670 0.749389
  In 0.337118 -0.003695 0.004442
  In 0.338734 0.158822 0.171008
  In 0.503733 0.000619 0.166821
  In 0.496328 0.157482 -0.000580
  As 0.418548 0.078340 0.085656
  As 0.412820 0.245199 0.254255
  As 0.578611 0.083376 0.252969
  Sb 0.578104 0.247634 0.084037
  In 0.329410 0.002701 0.338406
  In 0.337965 0.170251 0.496865
  In 0.492099 0.004631 0.504611
  In 0.496672 0.164409 0.334898
  As 0.414604 0.084328 0.417342
  As 0.415610 0.249253 0.583916
  As 0.580442 0.084711 0.579251
  As 0.579238 0.243434 0.418314
  In 0.332428 -0.008861 0.666143
  In 0.327336 0.168394 0.825668
  In 0.498580 -0.001647 0.840370
  In 0.501414 0.168039 0.661196
  Sb 0.417209 0.080598 0.747793
  Sb 0.417459 0.247709 0.911244
  As 0.579851 0.080478 0.918095
  As 0.577998 0.247916 0.747538
  In 0.333997 0.331133 -0.001371
  In 0.325757 0.500330 0.169585
  In 0.491615 0.328362 0.173101
  In 0.493952 0.504790 -0.006767
  Sb 0.414233 0.418630 0.084894
  Sb 0.412852 0.586752 0.252670
  Sb 0.580980 0.413324 0.255018
  Sb 0.581357 0.585974 0.081209
  In 0.329091 0.330698 0.330946
  In 0.329664 0.503962 0.504865
  In 0.497713 0.324787 0.500488
  In 0.501004 0.505024 0.338632
  Sb 0.413620 0.416047 0.418433
  As 0.415354 0.585434 0.584560
  Sb 0.578879 0.415785 0.584623
  As 0.578436 0.587819 0.419998
  In 0.335742 0.336388 0.664009
  In 0.335715 0.504190 0.827421
  In 0.497533 0.335268 0.821856
  In 0.495357 0.504651 0.668104
  As 0.414775 0.420017 0.745962
  As 0.413058 0.585782 0.912510
  Sb 0.581260 0.420232 0.909943
  As 0.578866 0.586527 0.749537
  In 0.335935 0.664333 0.001614
  In 0.330539 0.833246 0.160091
  In 0.492533 0.673126 0.162205
  In 0.495299 0.835960 0.001887
  As 0.412897 0.752552 0.079730
  Sb 0.413552 0.917430 0.250377
  Sb 0.581342 0.752680 0.248111
  As 0.579423 0.916088 0.082555
  In 0.332347 0.669096 0.345407
  In 0.335781 0.836888 0.496689
  In 0.497744 0.667649 0.503588
  In 0.494384 0.830448 0.338472
  As 0.416659 0.749762 0.422468
  As 0.414421 0.915290 0.581782
  As 0.579379 0.748662 0.585690
  Sb 0.579416 0.918226 0.422087
  In 0.336036 0.665981 0.668195
  In 0.339008 0.835613 0.829302
  In 0.494869 0.666054 0.830268
  In 0.493421 0.829320 0.661500
  As 0.416089 0.749770 0.747953
  As 0.415788 0.916133 0.918251
  Sb 0.581695 0.749733 0.916316
  Sb 0.579495 0.916715 0.745045
  In 0.657938 -0.003264 -0.000926
  In 0.660291 0.162692 0.172415
  In 0.838295 0.002385 0.168749
  In 0.830467 0.165257 0.000340
  Sb 0.745337 0.080116 0.084837
  Sb 0.749901 0.245475 0.254944
  As 0.918403 0.080590 0.251670
  Sb 0.919574 0.247748 0.084442
  In 0.662552 0.004472 0.333644
  In 0.663593 0.160765 0.495125
  In 0.829318 -0.005301 0.496158
  In 0.835372 0.156471 0.336855
  As 0.748248 0.078884 0.416227
  Sb 0.747700 0.248450 0.582696
  Sb 0.916348 0.081585 0.581778
  Sb 0.917360 0.248897 0.419677
  In 0.663815 0.001272 0.656224
  In 0.654132 0.164721 0.832412
  In 0.833657 -0.001793 0.833123
  In 0.836211 0.169775 0.670955
  Sb 0.745664 0.082965 0.749045
  Sb 0.747716 0.248866 0.911764
  Sb 0.920031 0.083197 0.916509
  As 0.918950 0.254051 0.746411
  In 0.663509 0.334100 -0.001950
  In 0.664346 0.498848 0.168149
  In 0.833410 0.333005 0.168851
  In 0.837009 0.505617 -0.005851
  Sb 0.751611 0.418999 0.080176
  Sb 0.750575 0.585717 0.251354
  Sb 0.919720 0.420850 0.250228
  As 0.915277 0.586961 0.080481
  In 0.662559 0.326467 0.342000
  In 0.659299 0.505558 0.498867
  In 0.835501 0.338617 0.504692
  In 0.839131 0.505577 0.338874
  Sb 0.748339 0.420059 0.418695
  Sb 0.748367 0.585895 0.583845
  As 0.920084 0.417469 0.582726
  As 0.923888 0.583257 0.419398
  In 0.662225 0.329503 0.671695
  In 0.667159 0.512420 0.831867
  In 0.840238 0.334422 0.832346
  In 0.837128 0.497138 0.661886
  Sb 0.750205 0.418685 0.751043
  As 0.753263 0.588425 0.914489
  As 0.916145 0.417807 0.916685
  Sb 0.918616 0.585243 0.749206
  In 0.673894 0.667520 -0.000997
  In 0.667039 0.834572 0.157991
  In 0.832840 0.669382 0.160147
  In 0.835566 0.827832 0.000192
  As 0.751182 0.750819 0.080863
  Sb 0.749321 0.917841 0.249789
  Sb 0.919787 0.748472 0.252241
  Sb 0.922169 0.915279 0.083632
  In 0.660771 0.665753 0.337263
  In 0.663345 0.832403 0.509848
  In 0.839757 0.663304 0.496819
  In 0.836087 0.835889 0.338024
  Sb 0.748566 0.750524 0.420671
  As 0.748337 0.916175 0.582706
  Sb 0.919939 0.751595 0.583044
  As 0.918498 0.917607 0.416741
  In 0.660099 0.669871 0.670256
  In 0.667125 0.829887 0.826062
  In 0.830903 0.672036 0.832140
  In 0.825664 0.832025 0.665779
  As 0.747420 0.748527 0.747553
  Sb 0.748013 0.912970 0.916903
  As 0.914888 0.749512 0.915132
  Sb 0.919060 0.911176 0.749489
K_POINTS automatic
  2 2 2 0 0 0

HUBBARD (atomic)
U In-5p -1.0150000000000001
U Ga-4p -2.8
U As-4p 3.26
U Sb-5p 3.16
