&CONTROL
  calculation = 'scf',
  etot_conv_thr = 0.0001,
  forc_conv_thr = 0.00045,
  outdir = './tmp_In0.0Ga1.0As0.25Sb0.75_cube_3x3x3.5',
  prefix = 'In0.0Ga1.0As0.25Sb0.75_cube_3x3x3.5',
  pseudo_dir = '/work/i254/i254/gentles/data/pseudos/',
  restart_mode = 'from_scratch',
  verbosity = 'low',
/
&SYSTEM
  celldm(1) = 34.04126219387787,
  ecutwfc = 120,
  ibrav = 1,
  nat = 216,
  nbnd = 2160,
  ntyp = 4,
/
&ELECTRONS
  conv_thr = 1d-05,
  mixing_beta = 0.65,
/
&IONS
/
&CELL
  cell_dofree = 'all',
/
ATOMIC_SPECIES
  As  74.9216 As.pbe.NC-SR.standard.v0.5.UPF
  Ga  69.7230 Ga.pbe.NC-SR.standard.v0.5.UPF
  In  114.8180 In.pbe.NC-SR.standard.v0.5.UPF
  Sb  121.7600 Sb.pbe.NC-SR.standard.v0.5.UPF
ATOMIC_POSITIONS crystal
  Ga 0.003286 -0.007333 -0.003597
  Ga -0.000874 0.164892 0.166893
  Ga 0.169342 -0.007926 0.162971
  Ga 0.167153 0.166172 -0.000790
  Sb 0.083695 0.079004 0.082497
  Sb 0.082786 0.250003 0.249816
  Sb 0.247108 0.080403 0.249819
  Sb 0.250530 0.251424 0.082940
  Ga 0.005072 0.001456 0.337783
  Ga 0.003774 0.160548 0.496408
  Ga 0.161729 0.002775 0.496270
  Ga 0.161234 0.161195 0.336308
  As 0.082912 0.082324 0.416745
  Sb 0.081411 0.247602 0.584919
  Sb 0.247846 0.081865 0.585082
  Sb 0.248639 0.247515 0.415561
  Ga -0.003993 -0.003237 0.675215
  Ga 0.002376 0.162869 0.826890
  Ga 0.156220 -0.001162 0.833567
  Ga 0.160268 0.159251 0.673336
  As 0.079227 0.078358 0.751105
  Sb 0.081952 0.250215 0.915112
  Sb 0.249198 0.079925 0.915478
  Sb 0.250796 0.245686 0.751657
  Ga 0.003786 0.338593 0.002855
  Ga -0.000713 0.505292 0.157284
  Ga 0.160915 0.338686 0.161881
  Ga 0.160066 0.496852 0.004799
  As 0.080160 0.419277 0.083722
  Sb 0.079383 0.587720 0.249334
  Sb 0.246697 0.417536 0.248971
  Sb 0.247417 0.584139 0.084616
  Ga -0.002683 0.333532 0.333720
  Ga -0.007322 0.506182 0.503508
  Ga 0.165678 0.332627 0.500787
  Ga 0.162722 0.501721 0.333568
  Sb 0.078269 0.419094 0.420362
  As 0.076064 0.584451 0.581362
  Sb 0.248242 0.420257 0.582377
  Sb 0.246179 0.588034 0.416384
  Ga -0.005881 0.339567 0.659794
  Ga -0.005762 0.506487 0.827642
  Ga 0.165405 0.334567 0.830899
  Ga 0.158760 0.506829 0.659102
  Sb 0.079783 0.420181 0.745652
  Sb 0.078640 0.583681 0.918012
  Sb 0.248099 0.416097 0.918428
  Sb 0.244871 0.584921 0.748658
  Ga -0.008639 0.669049 -0.001670
  Ga -0.007186 0.828191 0.175327
  Ga 0.168645 0.673009 0.170458
  Ga 0.162637 0.841985 -0.000289
  Sb 0.079442 0.752915 0.083812
  Sb 0.083677 0.912350 0.252399
  As 0.247287 0.752107 0.250478
  As 0.247089 0.913846 0.083310
  Ga -0.006321 0.669326 0.337234
  Ga 0.002523 0.829409 0.496537
  Ga 0.152427 0.666076 0.499274
  Ga 0.164089 0.822568 0.335028
  As 0.078616 0.747109 0.415355
  Sb 0.080167 0.918031 0.583317
  Sb 0.244556 0.747759 0.581095
  Sb 0.246542 0.914955 0.414774
  Ga -0.001838 0.659936 0.665881
  Ga -0.004889 0.835137 0.839039
  Ga 0.163468 0.669271 0.835788
  Ga 0.165488 0.834285 0.666770
  Sb 0.077819 0.750963 0.750834
  As 0.080882 0.915577 0.914967
  Sb 0.247629 0.753931 0.918563
  Sb 0.248596 0.919164 0.751656
  Ga 0.327516 -0.005565 0.005533
  Ga 0.333623 0.165559 0.169362
  Ga 0.505728 -0.005205 0.162737
  Ga 0.499488 0.173055 -0.000320
  Sb 0.417529 0.082247 0.082700
  Sb 0.420948 0.249361 0.250917
  Sb 0.585588 0.080885 0.251935
  As 0.582019 0.248930 0.081915
  Ga 0.334553 -0.000473 0.332128
  Ga 0.333030 0.165237 0.501490
  Ga 0.507555 -0.005948 0.495660
  Ga 0.506525 0.169042 0.338635
  Sb 0.419779 0.081619 0.417800
  Sb 0.418128 0.248892 0.583543
  Sb 0.585384 0.084733 0.580341
  As 0.588242 0.247967 0.418016
  Ga 0.337552 0.004246 0.671768
  Ga 0.341808 0.163886 0.834931
  Ga 0.495439 0.003366 0.829589
  Ga 0.496720 0.160891 0.669870
  As 0.417145 0.083899 0.750985
  As 0.418689 0.246878 0.915782
  Sb 0.581428 0.082639 0.917693
  Sb 0.584076 0.246835 0.749633
  Ga 0.337937 0.327363 -0.006635
  Ga 0.333450 0.498653 0.165169
  Ga 0.505592 0.329221 0.162386
  Ga 0.502108 0.501995 -0.000076
  Sb 0.418806 0.413790 0.080681
  Sb 0.414132 0.585237 0.250485
  Sb 0.584048 0.415453 0.251875
  Sb 0.586507 0.586200 0.085244
  Ga 0.332331 0.332590 0.331075
  Ga 0.334422 0.502495 0.498188
  Ga 0.506416 0.326475 0.495931
  Ga 0.499750 0.502086 0.334165
  Sb 0.417954 0.414325 0.416728
  Sb 0.419542 0.584516 0.583838
  Sb 0.585716 0.413681 0.582077
  Sb 0.586634 0.586977 0.416789
  Ga 0.331587 0.333473 0.665581
  Ga 0.329721 0.500736 0.832742
  Ga 0.497359 0.327722 0.836857
  Ga 0.502643 0.498639 0.667876
  Sb 0.416058 0.415130 0.752135
  Sb 0.415512 0.584281 0.916068
  Sb 0.584078 0.415195 0.916492
  Sb 0.588101 0.587667 0.748061
  Ga 0.332270 0.668479 0.000523
  Ga 0.322997 0.832983 0.167258
  Ga 0.500121 0.669411 0.168842
  Ga 0.505622 0.839025 0.003779
  Sb 0.415440 0.753897 0.084796
  Sb 0.416742 0.914826 0.247215
  Sb 0.587873 0.753765 0.249365
  As 0.586807 0.914956 0.083453
  Ga 0.328974 0.674423 0.329808
  Ga 0.331334 0.834940 0.501385
  Ga 0.506697 0.671810 0.504738
  Ga 0.506851 0.839559 0.336119
  Sb 0.419566 0.753590 0.417377
  Sb 0.419450 0.917300 0.584346
  As 0.589448 0.751613 0.580963
  As 0.588654 0.914730 0.417973
  Ga 0.331806 0.666808 0.666267
  Ga 0.334456 0.834051 0.833441
  Ga 0.501794 0.667788 0.834605
  Ga 0.507434 0.829138 0.660066
  Sb 0.419093 0.750893 0.747450
  Sb 0.416805 0.918245 0.918780
  Sb 0.587732 0.751617 0.918955
  Sb 0.583791 0.915304 0.749298
  Ga 0.663024 -0.006125 0.001935
  Ga 0.661594 0.168893 0.161735
  Ga 0.833574 -0.001834 0.167713
  Ga 0.835287 0.164200 -0.001376
  Sb 0.748447 0.081744 0.082684
  Sb 0.746676 0.247707 0.251377
  Sb 0.916635 0.082025 0.253702
  Sb 0.917313 0.251288 0.083345
  Ga 0.668685 -0.001368 0.342397
  Ga 0.672051 0.170842 0.497037
  Ga 0.829328 0.001074 0.496456
  Ga 0.826390 0.160438 0.338805
  As 0.747673 0.082381 0.419879
  As 0.751028 0.250978 0.579987
  Sb 0.915954 0.081198 0.583419
  Sb 0.913607 0.248140 0.419954
  Ga 0.667150 -0.000957 0.664601
  Ga 0.668778 0.162978 0.833568
  Ga 0.837903 -0.005708 0.829057
  Ga 0.829057 0.171338 0.659546
  Sb 0.753281 0.081675 0.747120
  Sb 0.749260 0.249083 0.918467
  Sb 0.919534 0.079735 0.913820
  Sb 0.915535 0.251274 0.746567
  Ga 0.663219 0.329588 0.005055
  Ga 0.669302 0.501371 0.170955
  Ga 0.832635 0.333906 0.169893
  Ga 0.837854 0.507477 0.004750
  Sb 0.750548 0.418107 0.083945
  Sb 0.755835 0.587445 0.251565
  Sb 0.918727 0.421898 0.248245
  As 0.916572 0.589004 0.082641
  Ga 0.664776 0.330331 0.339381
  Ga 0.668931 0.501489 0.501315
  Ga 0.834755 0.335835 0.509381
  Ga 0.840956 0.506560 0.338647
  Sb 0.754129 0.417283 0.418624
  Sb 0.753785 0.587072 0.583247
  As 0.915354 0.422117 0.583223
  As 0.916791 0.587953 0.419098
  Ga 0.671838 0.327479 0.662038
  Ga 0.670249 0.500469 0.832285
  Ga 0.834431 0.333832 0.836349
  Ga 0.841345 0.503121 0.666902
  Sb 0.754049 0.416166 0.746931
  Sb 0.755258 0.587957 0.915144
  Sb 0.917983 0.421222 0.918433
  As 0.916398 0.586139 0.747778
  Ga 0.674965 0.671630 0.005251
  Ga 0.670165 0.833379 0.157893
  Ga 0.838681 0.670714 0.164384
  Ga 0.833434 0.823360 -0.001709
  As 0.755280 0.750030 0.084229
  Sb 0.749397 0.913935 0.251550
  As 0.914096 0.746286 0.252973
  Sb 0.915583 0.911091 0.082720
  Ga 0.673782 0.673137 0.336079
  Ga 0.667111 0.828886 0.495836
  Ga 0.832430 0.669250 0.491980
  Ga 0.832672 0.824501 0.331760
  As 0.751482 0.751061 0.416132
  Sb 0.750978 0.912849 0.582610
  Sb 0.916622 0.748188 0.582660
  Sb 0.915738 0.914221 0.414347
  Ga 0.672326 0.677344 0.664883
  Ga 0.673048 0.828888 0.828193
  Ga 0.838357 0.671809 0.826453
  Ga 0.837121 0.833536 0.673104
  As 0.755056 0.752011 0.748190
  Sb 0.751727 0.913081 0.916091
  As 0.914842 0.749579 0.914213
  As 0.917802 0.913297 0.753746
K_POINTS automatic
  2 2 2 0 0 0

HUBBARD (atomic)
U In-5p -1.0575
U Ga-4p -2.335
U As-4p 5.84
U Sb-5p 4.89
