&CONTROL
  calculation = 'scf',
  etot_conv_thr = 0.0001,
  forc_conv_thr = 0.00045,
  outdir = './tmp_In0.0Ga1.0As0.75Sb0.25_cube_3x3x3.5',
  prefix = 'In0.0Ga1.0As0.75Sb0.25_cube_3x3x3.5',
  pseudo_dir = '/work/i254/i254/gentles/data/pseudos/',
  restart_mode = 'from_scratch',
  verbosity = 'low',
/
&SYSTEM
  celldm(1) = 32.8593890132535,
  ecutwfc = 120,
  ibrav = 1,
  nat = 216,
  nbnd = 2160,
  ntyp = 4,
/
&ELECTRONS
  conv_thr = 1d-05,
  mixing_beta = 0.65,
/
&IONS
/
&CELL
  cell_dofree = 'all',
/
ATOMIC_SPECIES
  As  74.9216 As.pbe.NC-SR.standard.v0.5.UPF
  Ga  69.7230 Ga.pbe.NC-SR.standard.v0.5.UPF
  In  114.8180 In.pbe.NC-SR.standard.v0.5.UPF
  Sb  121.7600 Sb.pbe.NC-SR.standard.v0.5.UPF
ATOMIC_POSITIONS crystal
  Ga -0.003729 0.004375 0.006272
  Ga 0.000190 0.167096 0.167600
  Ga 0.165090 0.001172 0.166581
  Ga 0.159417 0.162928 -0.004632
  As 0.081682 0.084397 0.085472
  As 0.080154 0.250897 0.251019
  As 0.249304 0.082477 0.250202
  Sb 0.247114 0.248656 0.083094
  Ga -0.001823 -0.004465 0.328756
  Ga 0.000714 0.172888 0.503821
  Ga 0.168731 -0.002431 0.503900
  Ga 0.170666 0.171675 0.328919
  Sb 0.084086 0.084053 0.415580
  As 0.084348 0.253676 0.584602
  As 0.247198 0.084116 0.583692
  As 0.249935 0.251145 0.417657
  Ga 0.003809 0.002827 0.665295
  Ga 0.001915 0.168448 0.831551
  Ga 0.170021 0.003339 0.827948
  Ga 0.165257 0.168980 0.665382
  As 0.084702 0.086224 0.748167
  As 0.082340 0.250405 0.914478
  As 0.245546 0.084046 0.916103
  As 0.245338 0.252118 0.748868
  Ga 0.002096 0.333592 -0.002226
  Ga 0.001140 0.498789 0.166848
  Ga 0.155632 0.334446 0.166016
  Ga 0.166517 0.499650 -0.001548
  As 0.081307 0.418660 0.080213
  As 0.080887 0.581325 0.250422
  Sb 0.248742 0.417976 0.250607
  As 0.247940 0.582997 0.082169
  Ga -0.000065 0.333895 0.334588
  Ga 0.000438 0.499250 0.500272
  Ga 0.166121 0.334278 0.500039
  Ga 0.160610 0.502869 0.339187
  As 0.081441 0.415935 0.418400
  As 0.084031 0.580445 0.582972
  As 0.247680 0.415974 0.583883
  As 0.247268 0.579643 0.420816
  Ga 0.002640 0.335571 0.668603
  Ga 0.001942 0.498854 0.833350
  Ga 0.164694 0.333243 0.833156
  Ga 0.165184 0.499280 0.666366
  As 0.084436 0.417250 0.751178
  As 0.084291 0.580951 0.916536
  As 0.245576 0.417975 0.914648
  As 0.246876 0.583409 0.747538
  Ga 0.005603 0.660719 0.003942
  Ga 0.002656 0.830828 0.166850
  Ga 0.161871 0.661138 0.164848
  Ga 0.169384 0.829436 0.004301
  As 0.084204 0.746882 0.084573
  As 0.083242 0.917127 0.247436
  Sb 0.249587 0.750059 0.247846
  As 0.248110 0.918981 0.084217
  Ga -0.003667 0.664190 0.328941
  Ga -0.003022 0.837156 0.503730
  Ga 0.170264 0.662749 0.505395
  Ga 0.166861 0.842105 0.333551
  Sb 0.083376 0.750061 0.417464
  As 0.083512 0.916518 0.584930
  As 0.248603 0.749528 0.585971
  As 0.249799 0.918525 0.418744
  Ga 0.002816 0.663707 0.664259
  Ga 0.003680 0.832664 0.825022
  Ga 0.165124 0.664326 0.833738
  Ga 0.164109 0.831071 0.666547
  As 0.084483 0.746000 0.747706
  Sb 0.084347 0.918624 0.917757
  As 0.246743 0.747741 0.916852
  As 0.246969 0.914334 0.747154
  Ga 0.327053 0.005764 0.003677
  Ga 0.335746 0.163267 0.172034
  Ga 0.499217 -0.001949 0.167078
  Ga 0.495779 0.168935 0.009943
  As 0.415127 0.082343 0.087690
  As 0.417594 0.248576 0.251507
  As 0.581621 0.081735 0.247931
  As 0.581236 0.254294 0.084664
  Ga 0.330210 -0.000137 0.334155
  Ga 0.329352 0.166195 0.500373
  Ga 0.488567 0.000533 0.499006
  Ga 0.495886 0.159828 0.330417
  As 0.410084 0.083531 0.415439
  As 0.409951 0.252407 0.582855
  Sb 0.582001 0.085438 0.582402
  Sb 0.581158 0.247833 0.417555
  Ga 0.326632 -0.003226 0.662165
  Ga 0.321920 0.169133 0.834119
  Ga 0.500793 -0.001975 0.830115
  Ga 0.499261 0.179364 0.665679
  Sb 0.412489 0.086135 0.747214
  Sb 0.414420 0.253866 0.916323
  Sb 0.582606 0.086275 0.919835
  As 0.586202 0.255705 0.748891
  Ga 0.330085 0.344019 0.000321
  Ga 0.336616 0.504853 0.162518
  Ga 0.497714 0.334406 0.167447
  Ga 0.501863 0.491484 -0.001163
  As 0.416525 0.417836 0.084271
  As 0.415992 0.581945 0.251371
  As 0.580682 0.419092 0.247202
  Sb 0.584240 0.583932 0.084842
  Ga 0.336724 0.330070 0.337061
  Ga 0.330401 0.497044 0.500955
  Ga 0.490133 0.334918 0.500922
  Ga 0.499823 0.499350 0.332153
  As 0.415037 0.418529 0.416009
  As 0.411508 0.580816 0.583467
  Sb 0.582596 0.419068 0.585706
  As 0.583129 0.582803 0.413256
  Ga 0.329413 0.333474 0.666730
  Ga 0.325436 0.496781 0.828109
  Ga 0.502851 0.337857 0.828199
  Ga 0.491644 0.503616 0.671638
  As 0.412091 0.416184 0.749397
  Sb 0.414412 0.582018 0.915440
  As 0.585079 0.412772 0.915651
  As 0.581139 0.581006 0.750920
  Ga 0.328440 0.669913 0.003681
  Ga 0.336272 0.839678 0.162420
  Ga 0.494959 0.669277 0.172152
  Ga 0.501575 0.827692 0.005785
  As 0.414873 0.750003 0.085789
  As 0.414681 0.919318 0.248756
  As 0.584652 0.749054 0.248900
  As 0.582041 0.912090 0.088093
  Ga 0.328991 0.656013 0.334195
  Ga 0.327314 0.833956 0.502641
  Ga 0.497469 0.656650 0.499064
  Ga 0.499311 0.833479 0.323564
  Sb 0.414223 0.748001 0.415056
  As 0.410430 0.916213 0.582563
  Sb 0.581646 0.746220 0.584054
  Sb 0.583382 0.918882 0.413540
  Ga 0.331744 0.666159 0.666177
  Ga 0.326265 0.828030 0.830038
  Ga 0.502840 0.670035 0.830440
  Ga 0.491649 0.835706 0.668035
  As 0.413743 0.748778 0.749254
  Sb 0.412845 0.914515 0.919081
  As 0.581650 0.750895 0.917590
  As 0.578476 0.912875 0.749972
  Ga 0.663221 -0.005629 0.006192
  Ga 0.658214 0.168809 0.166807
  Ga 0.838387 -0.003446 0.173035
  Ga 0.838270 0.172385 -0.004578
  Sb 0.752412 0.084336 0.085077
  Sb 0.752444 0.250901 0.249819
  As 0.919427 0.082919 0.250750
  As 0.921406 0.251148 0.081228
  Ga 0.672560 0.005917 0.328742
  Ga 0.679022 0.166792 0.499304
  Ga 0.840436 0.005677 0.494576
  Ga 0.841493 0.165459 0.336573
  As 0.756553 0.085190 0.413770
  As 0.756849 0.250362 0.583492
  As 0.921491 0.085814 0.581918
  As 0.919935 0.251460 0.418502
  Ga 0.661694 -0.005828 0.671242
  Ga 0.668287 0.177685 0.835745
  Ga 0.845189 0.000808 0.834532
  Ga 0.840989 0.170090 0.663099
  Sb 0.752673 0.085346 0.751020
  As 0.753465 0.256329 0.917279
  As 0.921364 0.087034 0.917295
  As 0.919339 0.252344 0.750023
  Ga 0.668633 0.333996 0.001269
  Ga 0.673061 0.497110 0.170260
  Ga 0.840302 0.335537 0.162320
  Ga 0.838994 0.495368 0.004922
  As 0.752924 0.415137 0.084616
  As 0.752955 0.583439 0.250182
  As 0.920429 0.416751 0.248744
  As 0.918560 0.581832 0.086185
  Ga 0.660827 0.338890 0.329331
  Ga 0.668075 0.508579 0.498910
  Ga 0.839712 0.331696 0.503170
  Ga 0.840530 0.503951 0.329114
  Sb 0.753157 0.418940 0.415896
  As 0.754686 0.582568 0.582598
  As 0.920045 0.416281 0.584484
  As 0.919228 0.583160 0.416819
  Ga 0.674605 0.331096 0.667958
  Ga 0.662681 0.494343 0.830011
  Ga 0.836288 0.336533 0.833089
  Ga 0.836003 0.497923 0.664998
  As 0.753134 0.416761 0.749238
  Sb 0.750947 0.579608 0.917143
  As 0.919573 0.416482 0.916657
  As 0.921920 0.578796 0.745838
  Ga 0.668683 0.675400 -0.000297
  Ga 0.668023 0.832937 0.169772
  Ga 0.833496 0.665960 0.166292
  Ga 0.836036 0.832363 0.010684
  As 0.750861 0.751108 0.087627
  As 0.752106 0.915625 0.252036
  As 0.916042 0.749794 0.248063
  As 0.919563 0.916521 0.088548
  Ga 0.666943 0.665112 0.331487
  Ga 0.672000 0.826163 0.493445
  Ga 0.836448 0.665847 0.499738
  Ga 0.834283 0.831420 0.333413
  As 0.753701 0.744478 0.413036
  Sb 0.754343 0.916961 0.580485
  As 0.919930 0.748050 0.583329
  As 0.916936 0.915848 0.414960
  Ga 0.668268 0.655750 0.666800
  Ga 0.659170 0.831831 0.833207
  Ga 0.841234 0.658467 0.828871
  Ga 0.843657 0.833330 0.666470
  Sb 0.751672 0.747716 0.749587
  Sb 0.752529 0.914667 0.917316
  Sb 0.920726 0.748168 0.918113
  As 0.923371 0.918861 0.747362
K_POINTS automatic
  2 2 2 0 0 0

HUBBARD (atomic)
U In-5p -0.9725
U Ga-4p -3.2649999999999997
U As-4p 5.84
U Sb-5p 4.89
