&CONTROL
  calculation = 'scf',
  etot_conv_thr = 0.0001,
  forc_conv_thr = 0.00045,
  outdir = './tmp_In0.0Ga1.0As0.5Sb0.5_cube_3x3x3.6',
  prefix = 'In0.0Ga1.0As0.5Sb0.5_cube_3x3x3.6',
  pseudo_dir = '/work/i254/i254/gentles/data/pseudos/',
  restart_mode = 'from_scratch',
  verbosity = 'low',
/
&SYSTEM
  celldm(1) = 33.43779510302742,
  ecutwfc = 120,
  ibrav = 1,
  nat = 216,
  nbnd = 2160,
  ntyp = 4,
/
&ELECTRONS
  conv_thr = 1d-05,
  mixing_beta = 0.65,
/
&IONS
/
&CELL
  cell_dofree = 'all',
/
ATOMIC_SPECIES
  As  74.9216 As.pbe.NC-SR.standard.v0.5.UPF
  Ga  69.7230 Ga.pbe.NC-SR.standard.v0.5.UPF
  In  114.8180 In.pbe.NC-SR.standard.v0.5.UPF
  Sb  121.7600 Sb.pbe.NC-SR.standard.v0.5.UPF
ATOMIC_POSITIONS crystal
  Ga -0.000443 0.007470 -0.003182
  Ga 0.003407 0.160375 0.163114
  Ga 0.159380 0.004657 0.160966
  Ga 0.160717 0.172768 0.000699
  As 0.082084 0.085658 0.078258
  Sb 0.083917 0.252309 0.246173
  Sb 0.246593 0.088061 0.247425
  As 0.246500 0.254263 0.077014
  Ga -0.006447 -0.006301 0.338536
  Ga -0.006492 0.161995 0.507419
  Ga 0.159368 -0.009470 0.507434
  Ga 0.168600 0.174309 0.339867
  Sb 0.081435 0.081528 0.420093
  Sb 0.082142 0.251642 0.586754
  Sb 0.245799 0.081756 0.586140
  As 0.249368 0.254169 0.419807
  Ga -0.002063 -0.002406 0.667486
  Ga 0.000647 0.167500 0.835791
  Ga 0.162983 -0.000267 0.825327
  Ga 0.158820 0.161635 0.674913
  As 0.076427 0.080833 0.751577
  As 0.080829 0.253198 0.917204
  Sb 0.246521 0.084548 0.915573
  Sb 0.246354 0.253726 0.752525
  Ga 0.001656 0.339478 -0.004502
  Ga 0.004471 0.497704 0.168579
  Ga 0.166268 0.336798 0.155509
  Ga 0.161104 0.499405 -0.004659
  As 0.082311 0.419278 0.079507
  As 0.079789 0.586257 0.250918
  Sb 0.249307 0.418587 0.249745
  Sb 0.247695 0.583833 0.081311
  Ga -0.003644 0.339548 0.328037
  Ga -0.004719 0.505316 0.495095
  Ga 0.171719 0.335749 0.500668
  Ga 0.167063 0.512217 0.331027
  Sb 0.085156 0.420880 0.414250
  Sb 0.080618 0.585026 0.584871
  As 0.248540 0.420294 0.579835
  As 0.249579 0.585861 0.417157
  Ga 0.000571 0.334387 0.677936
  Ga 0.000012 0.502948 0.831185
  Ga 0.162042 0.338352 0.839971
  Ga 0.163366 0.490820 0.666376
  As 0.082067 0.417301 0.755259
  As 0.080567 0.582960 0.913752
  As 0.246886 0.416474 0.920954
  Sb 0.246498 0.580140 0.750977
  Ga 0.004473 0.668154 -0.004315
  Ga -0.002558 0.822327 0.164961
  Ga 0.160575 0.667002 0.169949
  Ga 0.159120 0.827432 0.005674
  As 0.080800 0.745061 0.084444
  Sb 0.080158 0.912349 0.248472
  As 0.246107 0.743424 0.251170
  Sb 0.248598 0.913746 0.084225
  Ga -0.002733 0.667545 0.333340
  Ga -0.000621 0.829680 0.500667
  Ga 0.163613 0.666766 0.492717
  Ga 0.164512 0.822952 0.331970
  As 0.079364 0.747828 0.414608
  As 0.077275 0.911887 0.587495
  Sb 0.247141 0.749446 0.582595
  Sb 0.246993 0.911147 0.417482
  Ga -0.003780 0.672746 0.671114
  Ga -0.007825 0.830245 0.829890
  Ga 0.156085 0.666746 0.830909
  Ga 0.159454 0.834159 0.671625
  As 0.077465 0.751960 0.751660
  Sb 0.079779 0.914756 0.914679
  Sb 0.247449 0.749159 0.916414
  As 0.243986 0.915576 0.749591
  Ga 0.335906 -0.006381 -0.006403
  Ga 0.327111 0.175170 0.158202
  Ga 0.501634 -0.000973 0.167451
  Ga 0.501341 0.167045 -0.009534
  Sb 0.416192 0.084113 0.079317
  Sb 0.414608 0.256426 0.248097
  Sb 0.592098 0.083137 0.250154
  Sb 0.583459 0.250272 0.082273
  Ga 0.329927 -0.002857 0.330352
  Ga 0.327294 0.171111 0.497492
  Ga 0.500185 -0.000845 0.500346
  Ga 0.501415 0.168725 0.330748
  Sb 0.414201 0.084193 0.414948
  Sb 0.415704 0.254966 0.581860
  Sb 0.589523 0.079855 0.584796
  Sb 0.586164 0.254020 0.416789
  Ga 0.327387 -0.005788 0.672022
  Ga 0.336837 0.173834 0.838948
  Ga 0.506930 -0.004799 0.838125
  Ga 0.499146 0.164966 0.665424
  Sb 0.416928 0.080112 0.755119
  As 0.415643 0.253294 0.920128
  As 0.585551 0.082580 0.914606
  Sb 0.583707 0.248254 0.751717
  Ga 0.331167 0.334324 -0.000249
  Ga 0.337249 0.496844 0.161267
  Ga 0.500129 0.343837 0.163589
  Ga 0.491917 0.500555 0.001489
  As 0.414529 0.416155 0.079820
  Sb 0.418778 0.584862 0.249056
  As 0.583096 0.418282 0.248417
  Sb 0.584297 0.585059 0.083873
  Ga 0.332087 0.335993 0.343198
  Ga 0.331660 0.503048 0.499669
  Ga 0.501572 0.345704 0.500746
  Ga 0.499884 0.492536 0.333991
  As 0.414534 0.420140 0.419504
  As 0.416268 0.581376 0.581425
  As 0.584253 0.423012 0.583949
  Sb 0.583301 0.582633 0.417687
  Ga 0.326412 0.341283 0.662598
  Ga 0.329240 0.500536 0.844970
  Ga 0.495234 0.330635 0.837069
  Ga 0.503861 0.504872 0.663981
  Sb 0.414551 0.421341 0.751117
  As 0.415955 0.581454 0.918710
  Sb 0.582060 0.420652 0.916657
  As 0.584729 0.582779 0.748157
  Ga 0.340433 0.666603 -0.001076
  Ga 0.329050 0.821263 0.168179
  Ga 0.502341 0.676608 0.165428
  Ga 0.490995 0.830888 -0.000665
  As 0.414717 0.749429 0.083648
  Sb 0.417330 0.908340 0.250456
  As 0.587412 0.749117 0.248346
  Sb 0.585439 0.914031 0.081265
  Ga 0.328395 0.666554 0.335620
  Ga 0.339366 0.827153 0.495954
  Ga 0.490556 0.665807 0.498421
  Ga 0.503983 0.821233 0.334431
  As 0.415342 0.745296 0.413345
  Sb 0.417817 0.913410 0.586764
  Sb 0.584066 0.747879 0.583846
  Sb 0.586789 0.912841 0.417178
  Ga 0.335451 0.660702 0.662549
  Ga 0.329188 0.840120 0.832332
  Ga 0.500352 0.655914 0.833809
  Ga 0.508239 0.836417 0.674520
  Sb 0.416653 0.748591 0.752248
  As 0.417815 0.914464 0.913279
  Sb 0.583925 0.746138 0.917763
  As 0.588325 0.919509 0.751960
  Ga 0.667739 0.008089 -0.000245
  Ga 0.677699 0.168996 0.163691
  Ga 0.824013 -0.004691 0.163770
  Ga 0.835850 0.158017 -0.000568
  As 0.751582 0.082862 0.082062
  As 0.751862 0.251793 0.248847
  Sb 0.911551 0.079735 0.248553
  Sb 0.918616 0.250686 0.082430
  Ga 0.677836 -0.004966 0.333751
  Ga 0.674069 0.160363 0.494831
  Ga 0.835449 -0.000860 0.502056
  Ga 0.825717 0.166813 0.332832
  As 0.755150 0.078422 0.416034
  Sb 0.751409 0.247777 0.586408
  As 0.914789 0.079412 0.587993
  Sb 0.915752 0.249553 0.415805
  Ga 0.676537 -0.004406 0.672069
  Ga 0.670475 0.156305 0.830555
  Ga 0.841751 0.000610 0.829944
  Ga 0.838395 0.162393 0.673311
  As 0.756661 0.079074 0.751593
  Sb 0.753570 0.246412 0.914674
  As 0.918925 0.084334 0.914018
  As 0.920730 0.246913 0.752817
  Ga 0.669239 0.334693 -0.000925
  Ga 0.667324 0.503034 0.175107
  Ga 0.837253 0.334966 0.174855
  Ga 0.835830 0.499357 -0.009082
  Sb 0.753169 0.419090 0.086050
  As 0.751896 0.585804 0.250204
  As 0.917593 0.422533 0.250032
  Sb 0.918309 0.584116 0.082377
  Ga 0.666742 0.334568 0.322500
  Ga 0.670682 0.503054 0.507763
  Ga 0.833461 0.335622 0.501426
  Ga 0.838069 0.508597 0.329821
  Sb 0.750633 0.420719 0.412581
  As 0.753902 0.585242 0.584830
  Sb 0.917674 0.420495 0.587854
  As 0.916393 0.587104 0.415122
  Ga 0.662192 0.339193 0.664373
  Ga 0.667420 0.509191 0.833844
  Ga 0.843716 0.331844 0.832581
  Ga 0.835745 0.511827 0.669293
  Sb 0.753079 0.420213 0.751295
  As 0.754054 0.584839 0.915702
  As 0.920477 0.418723 0.912009
  As 0.919105 0.587451 0.752348
  Ga 0.678529 0.665976 0.001846
  Ga 0.672227 0.829020 0.169811
  Ga 0.831149 0.669207 0.170445
  Ga 0.834830 0.823597 -0.001211
  As 0.753761 0.748590 0.086240
  As 0.753370 0.912173 0.249797
  As 0.916279 0.747976 0.250697
  Sb 0.916585 0.914707 0.080798
  Ga 0.667743 0.665882 0.326892
  Ga 0.675106 0.836170 0.506759
  Ga 0.837867 0.664575 0.503053
  Ga 0.840908 0.836041 0.330247
  Sb 0.754376 0.750418 0.415270
  As 0.755789 0.918165 0.585452
  As 0.918133 0.749833 0.582997
  As 0.916340 0.913693 0.421648
  Ga 0.668853 0.659974 0.666769
  Ga 0.664539 0.836045 0.829926
  Ga 0.839613 0.663450 0.837926
  Ga 0.839490 0.836549 0.661298
  Sb 0.754795 0.749463 0.749017
  Sb 0.753111 0.917693 0.916321
  As 0.918512 0.746785 0.916337
  As 0.917583 0.915805 0.747208
K_POINTS automatic
  2 2 2 0 0 0

HUBBARD (atomic)
U In-5p -1.0150000000000001
U Ga-4p -2.8
U As-4p 5.84
U Sb-5p 4.89
