&CONTROL
  calculation = 'scf',
  etot_conv_thr = 0.0001,
  forc_conv_thr = 0.00045,
  outdir = './tmp_In1.0Ga0.0As0.75Sb0.25_cube_3x3x3.2',
  prefix = 'In1.0Ga0.0As0.75Sb0.25_cube_3x3x3.2',
  pseudo_dir = '/work/i254/i254/gentles/data/pseudos/',
  restart_mode = 'from_scratch',
  verbosity = 'low',
/
&SYSTEM
  celldm(1) = 35.1190336445479,
  ecutwfc = 120,
  ibrav = 1,
  nat = 216,
  nbnd = 2160,
  ntyp = 4,
/
&ELECTRONS
  conv_thr = 1d-05,
  mixing_beta = 0.65,
/
&IONS
/
&CELL
  cell_dofree = 'all',
/
ATOMIC_SPECIES
  As  74.9216 As.pbe.NC-SR.standard.v0.5.UPF
  Ga  69.7230 Ga.pbe.NC-SR.standard.v0.5.UPF
  In  114.8180 In.pbe.NC-SR.standard.v0.5.UPF
  Sb  121.7600 Sb.pbe.NC-SR.standard.v0.5.UPF
ATOMIC_POSITIONS crystal
  In 0.007275 0.001268 0.000913
  In -0.000409 0.167053 0.158152
  In 0.167420 0.001708 0.170038
  In 0.172238 0.165756 0.003864
  As 0.088202 0.083394 0.083961
  Sb 0.084251 0.248952 0.251673
  As 0.252382 0.083277 0.251117
  As 0.254613 0.248071 0.086656
  In 0.004478 -0.001439 0.337563
  In -0.000115 0.168471 0.498329
  In 0.166125 0.004113 0.504188
  In 0.171492 0.162034 0.338419
  As 0.084268 0.083878 0.419875
  As 0.082608 0.249197 0.582769
  As 0.252043 0.086431 0.582022
  As 0.252230 0.249513 0.417225
  In 0.003534 0.006200 0.662969
  In -0.002046 0.166515 0.822632
  In 0.163266 0.005167 0.835405
  In 0.168286 0.168174 0.664008
  As 0.085751 0.086170 0.746186
  Sb 0.082639 0.247827 0.915364
  As 0.249940 0.083916 0.917544
  As 0.250341 0.249524 0.746113
  In -0.008947 0.332665 -0.001676
  In -0.005021 0.494574 0.172403
  In 0.175901 0.333169 0.168369
  In 0.165762 0.509497 -0.000463
  Sb 0.083673 0.415447 0.082826
  Sb 0.085851 0.582922 0.251332
  As 0.254549 0.416380 0.252421
  As 0.255857 0.581042 0.084657
  In -0.004502 0.334888 0.337759
  In 0.000486 0.492101 0.500984
  In 0.166980 0.329322 0.500579
  In 0.169925 0.494940 0.338202
  As 0.084703 0.412357 0.418566
  Sb 0.086034 0.581703 0.585692
  As 0.250739 0.411629 0.582659
  As 0.253790 0.581012 0.414804
  In 0.000503 0.333871 0.664857
  In 0.000269 0.495346 0.832841
  In 0.167452 0.332744 0.826253
  In 0.172843 0.493718 0.669544
  As 0.083336 0.415175 0.747920
  As 0.080610 0.582960 0.912545
  Sb 0.251104 0.419218 0.916013
  As 0.251597 0.581195 0.750397
  In -0.000251 0.666669 -0.005922
  In -0.001887 0.834078 0.175448
  In 0.177865 0.666034 0.165850
  In 0.170345 0.843364 0.001000
  Sb 0.085389 0.751802 0.084301
  As 0.084395 0.918637 0.250813
  As 0.256435 0.750511 0.248324
  As 0.251835 0.920673 0.088006
  In -0.005487 0.670342 0.331520
  In -0.000397 0.842724 0.499308
  In 0.175730 0.665231 0.498696
  In 0.170702 0.834161 0.324049
  Sb 0.085808 0.753041 0.415706
  As 0.082959 0.920297 0.583069
  As 0.251112 0.751006 0.583607
  Sb 0.253079 0.918727 0.416060
  In -0.002348 0.665440 0.674629
  In 0.004089 0.829922 0.836713
  In 0.164469 0.661620 0.829324
  In 0.161333 0.830610 0.661353
  As 0.083876 0.748634 0.750568
  As 0.084908 0.918418 0.916179
  Sb 0.251565 0.747382 0.917693
  Sb 0.248968 0.918888 0.746320
  In 0.331180 0.004751 0.005121
  In 0.335387 0.165716 0.169494
  In 0.501200 -0.000336 0.167600
  In 0.503718 0.161973 0.005675
  As 0.417742 0.083061 0.087366
  As 0.417489 0.248051 0.250962
  As 0.582766 0.082944 0.250478
  As 0.583408 0.248683 0.085205
  In 0.340333 0.004102 0.329709
  In 0.334555 0.166892 0.498665
  In 0.499634 0.000702 0.497221
  In 0.501523 0.165994 0.332643
  As 0.418676 0.085541 0.415754
  As 0.417003 0.248558 0.581854
  As 0.579862 0.085380 0.580227
  As 0.582971 0.246938 0.415892
  In 0.338288 0.003954 0.660496
  In 0.328920 0.164385 0.829179
  In 0.499569 0.010567 0.832716
  In 0.500781 0.169083 0.665765
  As 0.416228 0.087326 0.746642
  Sb 0.418588 0.248134 0.916700
  As 0.585021 0.084390 0.919238
  As 0.583558 0.251044 0.749910
  In 0.334553 0.333752 0.006800
  In 0.336497 0.498796 0.169367
  In 0.496978 0.329303 0.164569
  In 0.501476 0.498678 0.000163
  As 0.418339 0.417340 0.085038
  As 0.417191 0.584407 0.251059
  Sb 0.583201 0.417056 0.250416
  As 0.581905 0.583421 0.082773
  In 0.335046 0.331047 0.332710
  In 0.330412 0.493741 0.496951
  In 0.496818 0.328126 0.494810
  In 0.496225 0.502957 0.337308
  As 0.415558 0.414168 0.415415
  Sb 0.414968 0.584683 0.580601
  Sb 0.584880 0.412774 0.581214
  As 0.584645 0.584543 0.414474
  In 0.334932 0.330785 0.664874
  In 0.339968 0.504379 0.831500
  In 0.503536 0.337281 0.830164
  In 0.495573 0.494791 0.668376
  As 0.414704 0.414238 0.749899
  As 0.420385 0.583450 0.918724
  As 0.584555 0.416238 0.917888
  Sb 0.582556 0.582144 0.752191
  In 0.339990 0.662866 0.005178
  In 0.336784 0.834717 0.166370
  In 0.501233 0.665887 0.168783
  In 0.504367 0.830925 0.007688
  As 0.419355 0.749009 0.087022
  As 0.419325 0.917214 0.248888
  As 0.582441 0.750592 0.249848
  As 0.584668 0.917718 0.086495
  In 0.335557 0.667113 0.333402
  In 0.338013 0.830612 0.502417
  In 0.504531 0.670009 0.494214
  In 0.499911 0.834336 0.332169
  As 0.418480 0.750681 0.414947
  As 0.419156 0.917011 0.580889
  As 0.583644 0.752093 0.578435
  As 0.581801 0.918132 0.414757
  In 0.328689 0.669151 0.669968
  In 0.338145 0.831346 0.828879
  In 0.498328 0.671124 0.838527
  In 0.497236 0.829386 0.662244
  As 0.417925 0.747835 0.748266
  Sb 0.419153 0.918556 0.919865
  As 0.582452 0.749106 0.922499
  Sb 0.582022 0.917637 0.748585
  In 0.665235 -0.000228 0.001841
  In 0.664379 0.167401 0.169798
  In 0.822253 0.000757 0.167620
  In 0.826000 0.170909 0.004264
  As 0.743887 0.085625 0.084570
  As 0.748328 0.249337 0.251650
  Sb 0.915559 0.083811 0.250820
  As 0.911777 0.251168 0.083578
  In 0.665058 0.001301 0.333903
  In 0.664940 0.166571 0.500110
  In 0.833279 0.003718 0.497347
  In 0.829830 0.171088 0.337925
  As 0.747572 0.084951 0.416927
  As 0.750414 0.248688 0.581315
  As 0.918287 0.084986 0.579639
  As 0.914279 0.251941 0.420009
  In 0.665182 0.002036 0.656498
  In 0.662630 0.171940 0.838100
  In 0.826454 -0.004488 0.839455
  In 0.837909 0.169946 0.660928
  Sb 0.748471 0.086226 0.748664
  As 0.747834 0.253516 0.917947
  Sb 0.914998 0.085871 0.918392
  As 0.916396 0.252644 0.745687
  In 0.664154 0.332912 0.002095
  In 0.668723 0.503649 0.161920
  In 0.830397 0.331461 0.168300
  In 0.828276 0.494233 -0.002734
  As 0.748436 0.414275 0.083745
  As 0.747105 0.584934 0.248442
  As 0.911714 0.412474 0.251923
  Sb 0.912983 0.582832 0.083638
  In 0.667747 0.329179 0.337419
  In 0.668982 0.501811 0.494788
  In 0.831696 0.334475 0.501494
  In 0.825234 0.495061 0.327327
  As 0.749302 0.414430 0.416204
  As 0.748764 0.581072 0.581918
  As 0.914985 0.414998 0.584563
  Sb 0.912245 0.578471 0.415139
  In 0.672103 0.328302 0.669567
  In 0.671191 0.495883 0.836868
  In 0.833241 0.331474 0.831943
  In 0.832565 0.499183 0.666251
  As 0.751934 0.414939 0.750379
  As 0.749510 0.581778 0.918568
  As 0.913466 0.415466 0.913889
  As 0.916231 0.578042 0.751986
  In 0.665596 0.664345 0.001084
  In 0.665233 0.833784 0.168151
  In 0.827814 0.671940 0.169729
  In 0.829686 0.827021 -0.002090
  As 0.745489 0.749874 0.083855
  As 0.745719 0.916169 0.252519
  As 0.911143 0.753112 0.252684
  Sb 0.914110 0.916704 0.083614
  In 0.664830 0.667421 0.330992
  In 0.665040 0.835732 0.496240
  In 0.824610 0.666540 0.498276
  In 0.830691 0.835872 0.335447
  As 0.745995 0.751185 0.414518
  As 0.748241 0.920300 0.575904
  Sb 0.914986 0.750915 0.582523
  As 0.914941 0.919848 0.415812
  In 0.663952 0.665587 0.658206
  In 0.663112 0.832550 0.841806
  In 0.836066 0.660225 0.835758
  In 0.826889 0.840195 0.662679
  Sb 0.748012 0.748517 0.751008
  As 0.746148 0.913802 0.922130
  As 0.915806 0.748306 0.914723
  Sb 0.918650 0.918764 0.750602
K_POINTS automatic
  2 2 2 0 0 0

HUBBARD (atomic)
U In-5p -0.9725
U Ga-4p -3.2649999999999997
U As-4p 3.26
U Sb-5p 3.16
