&CONTROL
  calculation = 'scf',
  etot_conv_thr = 0.0001,
  forc_conv_thr = 0.00045,
  outdir = './tmp_In1.0Ga0.0As0.75Sb0.25_cube_3x3x3.0',
  prefix = 'In1.0Ga0.0As0.75Sb0.25_cube_3x3x3.0',
  pseudo_dir = '/work/i254/i254/gentles/data/pseudos/',
  restart_mode = 'from_scratch',
  verbosity = 'low',
/
&SYSTEM
  celldm(1) = 35.121579018254515,
  ecutwfc = 120,
  ibrav = 1,
  nat = 216,
  nbnd = 2160,
  ntyp = 4,
/
&ELECTRONS
  conv_thr = 1d-05,
  mixing_beta = 0.65,
/
&IONS
/
&CELL
  cell_dofree = 'all',
/
ATOMIC_SPECIES
  As  74.9216 As.pbe.NC-SR.standard.v0.5.UPF
  Ga  69.7230 Ga.pbe.NC-SR.standard.v0.5.UPF
  In  114.8180 In.pbe.NC-SR.standard.v0.5.UPF
  Sb  121.7600 Sb.pbe.NC-SR.standard.v0.5.UPF
ATOMIC_POSITIONS crystal
  In 0.004298 -0.001478 0.004865
  In 0.000429 0.166114 0.167296
  In 0.170768 0.005223 0.165401
  In 0.168377 0.166096 0.005929
  As 0.084376 0.084421 0.085878
  As 0.082024 0.248582 0.250464
  As 0.251643 0.085706 0.249896
  As 0.250638 0.250283 0.086018
  In -0.004255 0.004137 0.335076
  In -0.004071 0.163556 0.496359
  In 0.163584 0.001675 0.497576
  In 0.165426 0.165612 0.331492
  As 0.081625 0.084425 0.415075
  Sb 0.081787 0.250679 0.582013
  As 0.249493 0.085059 0.577769
  As 0.250253 0.247848 0.411515
  In -0.003924 -0.004432 0.660409
  In -0.005066 0.173984 0.828801
  In 0.164390 0.000863 0.844833
  In 0.173716 0.166839 0.666118
  Sb 0.081921 0.082093 0.749048
  Sb 0.084119 0.254473 0.918019
  As 0.249116 0.084837 0.923067
  As 0.250885 0.249987 0.752464
  In -0.004836 0.337895 0.005148
  In -0.000643 0.499564 0.166708
  In 0.164844 0.329914 0.167557
  In 0.167121 0.494192 0.004133
  As 0.082256 0.415155 0.087364
  As 0.083950 0.582370 0.246505
  As 0.248568 0.412559 0.247831
  As 0.247927 0.580639 0.083181
  In -0.001306 0.331633 0.332591
  In 0.003108 0.494832 0.503932
  In 0.166019 0.332411 0.488871
  In 0.162036 0.494511 0.326458
  As 0.080719 0.415379 0.412661
  As 0.079997 0.582795 0.586282
  Sb 0.247572 0.415989 0.582705
  Sb 0.246016 0.582025 0.414448
  In -0.004564 0.336926 0.669583
  In -0.004912 0.496014 0.830763
  In 0.170097 0.339615 0.829727
  In 0.161751 0.503928 0.670809
  As 0.081116 0.417703 0.749859
  Sb 0.081945 0.582005 0.917046
  As 0.251213 0.416790 0.918565
  As 0.245990 0.584900 0.752554
  In -0.002728 0.669842 0.003450
  In -0.000014 0.833700 0.160378
  In 0.166157 0.666046 0.164960
  In 0.167492 0.832252 0.002000
  As 0.084034 0.749722 0.082783
  Sb 0.083899 0.918198 0.250526
  As 0.246450 0.752266 0.247421
  As 0.248424 0.918923 0.083565
  In 0.008670 0.666062 0.333616
  In -0.002966 0.833509 0.497316
  In 0.160187 0.666957 0.504587
  In 0.168653 0.830828 0.337720
  As 0.083642 0.750605 0.419218
  As 0.080337 0.916310 0.577766
  As 0.242969 0.749674 0.584019
  As 0.247919 0.919634 0.416236
  In -0.002987 0.665028 0.667475
  In 0.001222 0.833564 0.834322
  In 0.165997 0.671940 0.830691
  In 0.157511 0.831636 0.662887
  As 0.079150 0.749936 0.748609
  As 0.082831 0.913754 0.921631
  As 0.247886 0.748211 0.918988
  Sb 0.245047 0.916005 0.751134
  In 0.331823 0.004582 0.006463
  In 0.334679 0.169248 0.168776
  In 0.498431 0.002548 0.167369
  In 0.499102 0.165874 0.002086
  As 0.416297 0.086050 0.086531
  As 0.418509 0.250914 0.249153
  As 0.582636 0.084704 0.250038
  As 0.582314 0.248237 0.083605
  In 0.332417 0.001583 0.332799
  In 0.333276 0.166677 0.495421
  In 0.500597 0.000703 0.487790
  In 0.500654 0.168332 0.331754
  As 0.416020 0.085725 0.411722
  As 0.415010 0.250754 0.577372
  Sb 0.585371 0.084321 0.579382
  As 0.584172 0.250480 0.414773
  In 0.328944 0.004519 0.663311
  In 0.329127 0.170743 0.841463
  In 0.508876 0.001575 0.833781
  In 0.497034 0.172942 0.660943
  Sb 0.415901 0.087334 0.752149
  As 0.415744 0.249409 0.922552
  As 0.585355 0.085287 0.920317
  Sb 0.586860 0.251291 0.752280
  In 0.332658 0.332416 0.001670
  In 0.329134 0.494250 0.162085
  In 0.500347 0.332084 0.165337
  In 0.498573 0.498383 0.002815
  As 0.416226 0.413791 0.083040
  Sb 0.418123 0.578992 0.247207
  As 0.583698 0.412750 0.248758
  As 0.583982 0.581679 0.081619
  In 0.333010 0.330739 0.330121
  In 0.338916 0.494523 0.493752
  In 0.502499 0.332108 0.499190
  In 0.500841 0.489808 0.333821
  As 0.417970 0.408952 0.414306
  Sb 0.418667 0.581914 0.584411
  As 0.587584 0.414656 0.581473
  Sb 0.587328 0.582354 0.415514
  In 0.333643 0.325957 0.665935
  In 0.329204 0.504327 0.837224
  In 0.500102 0.333252 0.844053
  In 0.510892 0.498154 0.668305
  Sb 0.416806 0.416314 0.752239
  As 0.416243 0.580708 0.919562
  As 0.583932 0.418663 0.919888
  As 0.588622 0.582000 0.752642
  In 0.329692 0.661823 -0.001525
  In 0.328994 0.839357 0.169705
  In 0.509128 0.666812 0.166510
  In 0.510049 0.832874 0.001672
  Sb 0.416066 0.750581 0.084663
  As 0.415210 0.920588 0.249226
  As 0.587197 0.752845 0.249231
  As 0.584112 0.920174 0.087340
  In 0.329523 0.669520 0.326200
  In 0.322967 0.833581 0.500723
  In 0.504617 0.671953 0.503283
  In 0.502862 0.838640 0.326448
  Sb 0.415842 0.753988 0.414337
  Sb 0.417456 0.917247 0.580591
  As 0.588603 0.750681 0.585284
  As 0.585781 0.917835 0.410181
  In 0.324121 0.665432 0.665722
  In 0.331365 0.829677 0.838642
  In 0.502405 0.659059 0.837482
  In 0.508066 0.834680 0.666980
  Sb 0.418201 0.746595 0.750022
  Sb 0.419465 0.919076 0.920094
  As 0.584176 0.745387 0.915901
  As 0.587353 0.915653 0.752368
  In 0.664859 0.005157 0.006581
  In 0.665513 0.167937 0.168513
  In 0.834136 0.001360 0.167319
  In 0.829610 0.171061 0.006434
  As 0.749420 0.085823 0.088037
  As 0.749093 0.249705 0.250751
  As 0.915780 0.085253 0.249272
  As 0.917271 0.249771 0.086673
  In 0.668151 0.004077 0.331857
  In 0.672711 0.172091 0.494737
  In 0.834347 0.004970 0.496554
  In 0.832861 0.167830 0.330763
  As 0.751814 0.086081 0.413426
  As 0.753742 0.252163 0.580402
  As 0.914844 0.083851 0.582110
  As 0.915995 0.248768 0.414188
  In 0.668260 0.000846 0.673063
  In 0.672926 0.162601 0.838322
  In 0.835122 -0.000921 0.825183
  In 0.832850 0.168229 0.664092
  As 0.752881 0.085330 0.749113
  As 0.749715 0.250462 0.918994
  Sb 0.915792 0.084408 0.918558
  As 0.911002 0.253685 0.748332
  In 0.662540 0.330073 -0.001478
  In 0.662026 0.501153 0.169212
  In 0.836660 0.329384 0.171560
  In 0.836487 0.502900 -0.004148
  Sb 0.751094 0.415898 0.083884
  As 0.748206 0.579443 0.250422
  As 0.917662 0.415415 0.250098
  As 0.918006 0.581297 0.082417
  In 0.666913 0.332472 0.332643
  In 0.673672 0.495866 0.501850
  In 0.837042 0.332867 0.498285
  In 0.829999 0.494256 0.330497
  As 0.751420 0.412395 0.416178
  As 0.751025 0.582801 0.584622
  As 0.915376 0.417029 0.584242
  Sb 0.916619 0.581721 0.417357
  In 0.673345 0.336153 0.663500
  In 0.669290 0.497389 0.833780
  In 0.830481 0.333313 0.834770
  In 0.834078 0.501584 0.666943
  As 0.752443 0.417707 0.749624
  As 0.751488 0.582084 0.914520
  As 0.914488 0.415500 0.915997
  As 0.915116 0.582960 0.750479
  In 0.665843 0.661309 -0.004156
  In 0.666929 0.839581 0.170184
  In 0.832839 0.655745 0.167328
  In 0.840906 0.834483 -0.001002
  Sb 0.750615 0.748943 0.083483
  As 0.751012 0.921018 0.251277
  Sb 0.915865 0.749106 0.250636
  As 0.917328 0.919146 0.083743
  In 0.672955 0.670981 0.329265
  In 0.663079 0.831889 0.495196
  In 0.830062 0.670223 0.503257
  In 0.830565 0.838988 0.336840
  As 0.750301 0.752166 0.416653
  Sb 0.751577 0.915319 0.583223
  As 0.917816 0.749195 0.583273
  As 0.915605 0.919724 0.417105
  In 0.669329 0.664811 0.667658
  In 0.665306 0.825943 0.831014
  In 0.833877 0.666080 0.834219
  In 0.837759 0.827849 0.669980
  As 0.752026 0.746699 0.750110
  Sb 0.748132 0.917410 0.916074
  As 0.918289 0.749883 0.915620
  As 0.919099 0.913716 0.748655
K_POINTS automatic
  2 2 2 0 0 0

HUBBARD (atomic)
U In-5p -0.9725
U Ga-4p -3.2649999999999997
U As-4p 3.26
U Sb-5p 3.16
