&CONTROL
  calculation = 'scf',
  etot_conv_thr = 0.0001,
  forc_conv_thr = 0.00045,
  outdir = './tmp_In0.0Ga1.0As0.75Sb0.25_cube_3x3x3.1',
  prefix = 'In0.0Ga1.0As0.75Sb0.25_cube_3x3x3.1',
  pseudo_dir = '/work/i254/i254/gentles/data/pseudos/',
  restart_mode = 'from_scratch',
  verbosity = 'low',
/
&SYSTEM
  celldm(1) = 32.85552155674837,
  ecutwfc = 120,
  ibrav = 1,
  nat = 216,
  nbnd = 2160,
  ntyp = 4,
/
&ELECTRONS
  conv_thr = 1d-05,
  mixing_beta = 0.65,
/
&IONS
/
&CELL
  cell_dofree = 'all',
/
ATOMIC_SPECIES
  As  74.9216 As.pbe.NC-SR.standard.v0.5.UPF
  Ga  69.7230 Ga.pbe.NC-SR.standard.v0.5.UPF
  In  114.8180 In.pbe.NC-SR.standard.v0.5.UPF
  Sb  121.7600 Sb.pbe.NC-SR.standard.v0.5.UPF
ATOMIC_POSITIONS crystal
  Ga -0.000760 0.001950 -0.001159
  Ga 0.009939 0.167520 0.166305
  Ga 0.162002 0.004480 0.171341
  Ga 0.164723 0.165376 -0.002441
  As 0.084668 0.083131 0.081193
  As 0.087314 0.249880 0.253010
  As 0.246244 0.084516 0.253916
  As 0.243994 0.247262 0.083195
  Ga 0.003874 -0.005064 0.339364
  Ga 0.003255 0.161640 0.505621
  Ga 0.162536 -0.004864 0.496659
  Ga 0.166397 0.166673 0.338000
  As 0.083661 0.082001 0.418789
  As 0.079775 0.251060 0.584661
  Sb 0.248934 0.083920 0.582706
  As 0.247646 0.251344 0.418971
  Ga -0.001521 -0.000752 0.668382
  Ga -0.001667 0.165325 0.832032
  Ga 0.162996 -0.000791 0.832879
  Ga 0.155447 0.167036 0.667205
  As 0.079086 0.081492 0.750931
  As 0.082937 0.247874 0.912254
  As 0.246650 0.081126 0.913707
  Sb 0.248519 0.251138 0.748560
  Ga -0.000535 0.333243 -0.012476
  Ga -0.007066 0.500787 0.164725
  Ga 0.169892 0.330071 0.171721
  Ga 0.169866 0.507745 -0.004474
  Sb 0.084452 0.416226 0.080583
  Sb 0.083485 0.584983 0.250271
  As 0.248763 0.416620 0.253821
  As 0.249629 0.586644 0.083160
  Ga 0.005950 0.337524 0.330876
  Ga 0.000158 0.498646 0.500663
  Ga 0.165508 0.331104 0.502236
  Ga 0.167821 0.495895 0.340018
  As 0.084242 0.415206 0.420290
  As 0.081234 0.580834 0.584157
  As 0.249537 0.415918 0.580405
  As 0.249191 0.580447 0.419500
  Ga -0.002616 0.332975 0.667054
  Ga -0.001152 0.501128 0.830507
  Ga 0.162151 0.338429 0.835363
  Ga 0.161969 0.493285 0.661895
  As 0.079807 0.416189 0.748953
  As 0.079354 0.584144 0.915656
  As 0.247873 0.418951 0.916557
  Sb 0.248363 0.581615 0.747821
  Ga -0.000989 0.667561 -0.000694
  Ga -0.000381 0.833084 0.166071
  Ga 0.168641 0.673363 0.160783
  Ga 0.154996 0.835026 -0.001290
  As 0.079190 0.750858 0.081925
  As 0.082325 0.915949 0.249694
  As 0.251468 0.749245 0.247876
  Sb 0.247180 0.916253 0.084380
  Ga -0.008033 0.668207 0.335746
  Ga -0.004973 0.836521 0.507514
  Ga 0.168718 0.660997 0.505875
  Ga 0.170636 0.835969 0.326509
  Sb 0.084051 0.752125 0.419608
  As 0.081486 0.917145 0.585979
  As 0.246785 0.749876 0.585987
  As 0.247497 0.918290 0.412773
  Ga 0.000086 0.666974 0.666779
  Ga -0.001493 0.834334 0.830897
  Ga 0.156389 0.667084 0.831229
  Ga 0.164748 0.833455 0.667778
  As 0.080116 0.752080 0.748180
  As 0.078255 0.918668 0.914207
  Sb 0.248609 0.750024 0.916100
  As 0.246720 0.916942 0.751771
  Ga 0.331892 -0.003518 -0.010757
  Ga 0.324064 0.165595 0.166316
  Ga 0.502928 -0.004286 0.170892
  Ga 0.504514 0.161697 -0.006679
  Sb 0.415352 0.080046 0.082068
  Sb 0.415488 0.249651 0.253473
  As 0.586185 0.079613 0.251303
  Sb 0.587202 0.248745 0.081173
  Ga 0.332725 0.002331 0.333988
  Ga 0.336749 0.172706 0.496638
  Ga 0.498950 0.011230 0.503265
  Ga 0.505892 0.162267 0.336837
  As 0.416558 0.086222 0.416249
  As 0.419013 0.251352 0.582781
  As 0.584759 0.087068 0.586890
  As 0.583647 0.248651 0.420783
  Ga 0.332473 0.000051 0.675944
  Ga 0.332506 0.157871 0.831218
  Ga 0.503651 -0.001115 0.831530
  Ga 0.500081 0.167758 0.667466
  As 0.419980 0.081638 0.751010
  Sb 0.415546 0.251235 0.912975
  As 0.587465 0.080920 0.911723
  As 0.584855 0.248739 0.748073
  Ga 0.322089 0.331366 0.000846
  Ga 0.325457 0.503587 0.170585
  Ga 0.504879 0.337735 0.170656
  Ga 0.502043 0.497188 -0.011517
  Sb 0.413382 0.418445 0.082203
  As 0.410635 0.582127 0.250322
  As 0.582603 0.419099 0.256116
  Sb 0.583265 0.582520 0.081345
  Ga 0.328672 0.337456 0.340473
  Ga 0.333435 0.501068 0.500915
  Ga 0.501445 0.332543 0.501096
  Ga 0.491840 0.497089 0.332255
  As 0.415137 0.416172 0.420756
  As 0.415831 0.583371 0.584371
  As 0.584183 0.413806 0.584737
  Sb 0.583539 0.580505 0.418983
  Ga 0.336239 0.336736 0.661246
  Ga 0.336926 0.495706 0.834920
  Ga 0.504597 0.336306 0.824645
  Ga 0.497231 0.497248 0.662651
  As 0.417659 0.416663 0.746655
  As 0.417085 0.582990 0.915282
  As 0.586818 0.415045 0.909450
  Sb 0.584399 0.584030 0.750111
  Ga 0.337074 0.663084 0.002911
  Ga 0.337167 0.830173 0.169165
  Ga 0.490251 0.665690 0.165269
  Ga 0.500914 0.834014 -0.000363
  As 0.416586 0.751130 0.081573
  As 0.414627 0.918218 0.250908
  Sb 0.582160 0.750921 0.248338
  As 0.582823 0.918757 0.080911
  Ga 0.326330 0.660918 0.331580
  Ga 0.320799 0.834668 0.500361
  Ga 0.501762 0.667451 0.509921
  Ga 0.494489 0.838147 0.333905
  Sb 0.411500 0.747986 0.419677
  Sb 0.416510 0.915365 0.585866
  As 0.587326 0.749445 0.588778
  Sb 0.585047 0.921297 0.419494
  Ga 0.336927 0.671394 0.664139
  Ga 0.335981 0.837008 0.828442
  Ga 0.495272 0.671458 0.836079
  Ga 0.507164 0.830049 0.672211
  As 0.417696 0.752028 0.749357
  As 0.419874 0.915768 0.912266
  As 0.582426 0.753376 0.914074
  As 0.587482 0.917308 0.750287
  Ga 0.666653 -0.002161 -0.004062
  Ga 0.668547 0.155944 0.164995
  Ga 0.833153 -0.004599 0.157996
  Ga 0.828143 0.161210 -0.005725
  As 0.749306 0.077630 0.078300
  Sb 0.747221 0.249259 0.253607
  Sb 0.918614 0.080233 0.249353
  Sb 0.917441 0.248353 0.080102
  Ga 0.674577 0.003314 0.331276
  Ga 0.667759 0.168142 0.503810
  Ga 0.833202 -0.000228 0.502634
  Ga 0.831006 0.162177 0.341339
  As 0.749466 0.082448 0.422757
  As 0.750830 0.250182 0.585823
  As 0.916578 0.081606 0.585568
  Sb 0.919727 0.251950 0.420421
  Ga 0.668196 0.001250 0.667385
  Ga 0.668056 0.165617 0.829378
  Ga 0.833271 0.000211 0.831036
  Ga 0.834187 0.166293 0.666554
  As 0.751442 0.083654 0.748333
  As 0.751632 0.247628 0.910070
  As 0.915378 0.082304 0.914589
  As 0.916930 0.248487 0.748858
  Ga 0.669933 0.331995 -0.011266
  Ga 0.667717 0.500315 0.175714
  Ga 0.838814 0.336503 0.172324
  Ga 0.838275 0.506675 -0.006027
  Sb 0.752361 0.419028 0.081052
  As 0.755975 0.580477 0.252335
  As 0.918363 0.419335 0.253838
  As 0.917000 0.585835 0.081185
  Ga 0.661630 0.336958 0.341803
  Ga 0.671253 0.495939 0.507393
  Ga 0.831142 0.337267 0.506958
  Ga 0.834072 0.498034 0.338509
  As 0.750288 0.416396 0.421372
  As 0.753801 0.581625 0.586925
  As 0.916728 0.418717 0.586086
  As 0.916858 0.580525 0.419534
  Ga 0.667161 0.331614 0.667254
  Ga 0.674164 0.496136 0.833304
  Ga 0.834693 0.331835 0.829696
  Ga 0.835554 0.500234 0.669389
  As 0.752550 0.414071 0.748199
  As 0.753578 0.584962 0.911294
  As 0.915863 0.418397 0.910369
  As 0.917628 0.585053 0.749472
  Ga 0.667649 0.667988 -0.010641
  Ga 0.667375 0.842053 0.164281
  Ga 0.837033 0.663886 0.169045
  Ga 0.841064 0.837324 -0.007840
  Sb 0.753563 0.752255 0.079777
  As 0.753370 0.919869 0.247276
  As 0.916247 0.751859 0.249344
  As 0.920202 0.915998 0.079563
  Ga 0.672937 0.663078 0.330665
  Ga 0.667674 0.834728 0.510264
  Ga 0.839385 0.661181 0.506344
  Ga 0.838082 0.839403 0.329702
  Sb 0.754975 0.751215 0.419774
  As 0.752108 0.918003 0.587642
  As 0.916202 0.749371 0.587581
  As 0.916689 0.917819 0.420241
  Ga 0.674458 0.669547 0.665529
  Ga 0.668658 0.834453 0.832518
  Ga 0.835517 0.668487 0.830638
  Ga 0.833969 0.834068 0.669139
  As 0.752401 0.752065 0.750785
  As 0.751941 0.917006 0.913889
  As 0.919256 0.749899 0.913022
  As 0.915924 0.916790 0.749902
K_POINTS automatic
  2 2 2 0 0 0

HUBBARD (atomic)
U In-5p -0.9725
U Ga-4p -3.2649999999999997
U As-4p 5.84
U Sb-5p 4.89
