&CONTROL
  calculation = 'scf',
  etot_conv_thr = 0.0001,
  forc_conv_thr = 0.00045,
  outdir = './tmp_In1.0Ga0.0As0.75Sb0.25_cube_3x3x3.1',
  prefix = 'In1.0Ga0.0As0.75Sb0.25_cube_3x3x3.1',
  pseudo_dir = '/work/i254/i254/gentles/data/pseudos/',
  restart_mode = 'from_scratch',
  verbosity = 'low',
/
&SYSTEM
  celldm(1) = 35.12702942962546,
  ecutwfc = 120,
  ibrav = 1,
  nat = 216,
  nbnd = 2160,
  ntyp = 4,
/
&ELECTRONS
  conv_thr = 1d-05,
  mixing_beta = 0.65,
/
&IONS
/
&CELL
  cell_dofree = 'all',
/
ATOMIC_SPECIES
  As  74.9216 As.pbe.NC-SR.standard.v0.5.UPF
  Ga  69.7230 Ga.pbe.NC-SR.standard.v0.5.UPF
  In  114.8180 In.pbe.NC-SR.standard.v0.5.UPF
  Sb  121.7600 Sb.pbe.NC-SR.standard.v0.5.UPF
ATOMIC_POSITIONS crystal
  In -0.000990 -0.000079 -0.002066
  In -0.002373 0.169528 0.164985
  In 0.158935 -0.001122 0.163957
  In 0.161302 0.169648 0.005538
  As 0.077855 0.084113 0.083468
  As 0.079353 0.253125 0.247733
  Sb 0.250325 0.084021 0.247558
  As 0.250235 0.250843 0.083144
  In -0.001912 -0.002291 0.323961
  In -0.006383 0.171450 0.505432
  In 0.165907 0.001423 0.499243
  In 0.161760 0.172559 0.329912
  Sb 0.076762 0.085483 0.415369
  As 0.079370 0.251577 0.586119
  Sb 0.251908 0.085470 0.585958
  Sb 0.251512 0.253683 0.417515
  In -0.007962 0.004932 0.670981
  In -0.001554 0.165400 0.833836
  In 0.161872 -0.003331 0.830487
  In 0.161672 0.170516 0.670996
  As 0.080253 0.083931 0.750812
  As 0.079995 0.247087 0.917128
  Sb 0.247887 0.084169 0.917580
  As 0.248569 0.252453 0.749157
  In -0.003535 0.332173 -0.005724
  In -0.005168 0.504632 0.170245
  In 0.168546 0.331064 0.168531
  In 0.164624 0.509604 -0.001094
  Sb 0.081221 0.418333 0.083045
  As 0.083717 0.583713 0.248616
  As 0.247848 0.417292 0.247982
  As 0.248897 0.586078 0.082939
  In -0.001970 0.334370 0.333659
  In 0.001118 0.495726 0.504033
  In 0.161536 0.336744 0.505014
  In 0.163523 0.497888 0.331819
  As 0.081598 0.415974 0.416971
  As 0.082570 0.581831 0.583951
  As 0.248207 0.417426 0.584490
  As 0.243463 0.581048 0.415207
  In -0.007689 0.330774 0.665628
  In -0.005194 0.503612 0.838678
  In 0.163877 0.326799 0.834921
  In 0.170279 0.504506 0.664951
  Sb 0.080384 0.418172 0.750153
  As 0.079434 0.587170 0.917222
  Sb 0.249954 0.417070 0.917307
  As 0.249614 0.584435 0.751765
  In -0.002876 0.667270 0.000868
  In -0.002117 0.831284 0.162833
  In 0.165282 0.666165 0.164733
  In 0.161063 0.829279 -0.005411
  As 0.081361 0.748194 0.081959
  As 0.080065 0.912969 0.245424
  As 0.247874 0.747832 0.247643
  Sb 0.250597 0.913322 0.081684
  In 0.001746 0.668670 0.327547
  In 0.003744 0.827659 0.496704
  In 0.160501 0.662781 0.496030
  In 0.163504 0.829915 0.326728
  As 0.083817 0.747970 0.411580
  Sb 0.081046 0.916839 0.588456
  Sb 0.248399 0.747431 0.585730
  Sb 0.251763 0.914371 0.414053
  In 0.002465 0.661461 0.672151
  In -0.003872 0.832633 0.834092
  In 0.165648 0.665268 0.835258
  In 0.164534 0.830583 0.677479
  As 0.080696 0.747283 0.755595
  As 0.079641 0.915519 0.914631
  As 0.247998 0.748874 0.916123
  As 0.249737 0.913065 0.754863
  In 0.342128 0.000059 -0.000651
  In 0.336845 0.168742 0.159891
  In 0.502424 -0.001251 0.163931
  In 0.499477 0.170443 0.001381
  As 0.421222 0.084060 0.082493
  As 0.418264 0.249634 0.244975
  As 0.580718 0.081236 0.250369
  As 0.582720 0.252145 0.084010
  In 0.342254 -0.000098 0.332057
  In 0.343476 0.167446 0.499853
  In 0.503025 0.000439 0.501629
  In 0.496728 0.164521 0.329128
  As 0.421463 0.082003 0.417060
  As 0.418740 0.250720 0.587417
  As 0.586958 0.082721 0.583575
  Sb 0.583375 0.249638 0.418079
  In 0.332728 -0.008626 0.669439
  In 0.332444 0.173893 0.832832
  In 0.502165 -0.008955 0.832990
  In 0.507074 0.168944 0.663895
  Sb 0.418869 0.083092 0.750122
  As 0.416905 0.250930 0.917420
  Sb 0.586053 0.082554 0.916322
  As 0.586455 0.251743 0.748356
  In 0.337431 0.331767 0.003353
  In 0.328241 0.496737 0.161556
  In 0.502785 0.335401 0.168313
  In 0.500543 0.500329 0.007686
  As 0.417342 0.415144 0.086376
  Sb 0.415842 0.583474 0.247344
  As 0.586541 0.419783 0.247897
  As 0.586649 0.585056 0.083066
  In 0.335505 0.334819 0.323557
  In 0.325459 0.500797 0.499030
  In 0.500835 0.334793 0.509805
  In 0.509123 0.502909 0.333116
  Sb 0.418665 0.418038 0.416201
  Sb 0.419154 0.581595 0.585740
  As 0.587912 0.416880 0.586108
  As 0.590504 0.583001 0.416853
  In 0.331883 0.333678 0.665527
  In 0.335124 0.498403 0.825651
  In 0.498108 0.329447 0.830565
  In 0.506786 0.495519 0.671636
  As 0.418096 0.413250 0.747335
  Sb 0.417154 0.585820 0.916659
  Sb 0.585875 0.416297 0.916650
  As 0.586498 0.585184 0.750027
  In 0.329745 0.671785 0.003712
  In 0.337640 0.829256 0.171477
  In 0.503992 0.670184 0.162337
  In 0.499811 0.831123 -0.001096
  As 0.417876 0.750985 0.083247
  As 0.421646 0.916666 0.247662
  As 0.586116 0.749262 0.247737
  As 0.581605 0.912736 0.081389
  In 0.324492 0.665323 0.334046
  In 0.339765 0.835336 0.505782
  In 0.510245 0.665434 0.499992
  In 0.507569 0.837188 0.328285
  Sb 0.420598 0.749467 0.414265
  As 0.421683 0.917469 0.586243
  As 0.587380 0.750786 0.584027
  As 0.584875 0.918145 0.418155
  In 0.336437 0.667589 0.676608
  In 0.333460 0.832002 0.836900
  In 0.506539 0.671227 0.831415
  In 0.502896 0.832034 0.666605
  As 0.419834 0.753497 0.753079
  As 0.418562 0.913113 0.916837
  As 0.586334 0.751000 0.917548
  As 0.586260 0.912752 0.749880
  In 0.668315 -0.010196 -0.000162
  In 0.658865 0.165985 0.167526
  In 0.841448 -0.000002 0.165855
  In 0.836523 0.169801 -0.005434
  Sb 0.750584 0.083234 0.081895
  Sb 0.752109 0.250794 0.249535
  As 0.918201 0.085756 0.248211
  As 0.917253 0.250981 0.079244
  In 0.664908 0.004535 0.337662
  In 0.672594 0.164673 0.504118
  In 0.829704 0.001891 0.505952
  In 0.837369 0.163213 0.337549
  As 0.751915 0.083342 0.419303
  As 0.751766 0.251130 0.585359
  As 0.911946 0.086687 0.586455
  As 0.915356 0.252225 0.417967
  In 0.665630 0.000056 0.669297
  In 0.671294 0.170592 0.829665
  In 0.831346 0.000958 0.835518
  In 0.831447 0.168036 0.669716
  As 0.750189 0.082956 0.750192
  As 0.753013 0.251811 0.914300
  As 0.916473 0.082676 0.915631
  As 0.914384 0.249164 0.752599
  In 0.672521 0.329163 0.003203
  In 0.668492 0.501386 0.164625
  In 0.838582 0.336753 0.161062
  In 0.832328 0.500645 -0.000293
  As 0.751607 0.417909 0.082781
  As 0.749860 0.583478 0.247872
  As 0.915754 0.416897 0.249870
  As 0.914256 0.583777 0.082596
  In 0.667391 0.340961 0.333923
  In 0.668399 0.499649 0.502006
  In 0.831153 0.334094 0.499154
  In 0.828952 0.496532 0.329253
  As 0.749673 0.418700 0.418241
  As 0.748057 0.581324 0.586629
  As 0.913590 0.415480 0.582925
  Sb 0.915622 0.582624 0.415729
  In 0.669878 0.334594 0.667377
  In 0.672449 0.504657 0.830273
  In 0.833171 0.336229 0.832337
  In 0.834642 0.500335 0.666754
  As 0.752141 0.418359 0.748780
  As 0.752816 0.584913 0.915719
  As 0.913392 0.417815 0.916941
  As 0.914870 0.582935 0.752169
  In 0.668509 0.665747 -0.002393
  In 0.664588 0.828970 0.160628
  In 0.831958 0.665969 0.164395
  In 0.833480 0.832270 -0.000541
  As 0.750428 0.748495 0.080540
  Sb 0.749080 0.915741 0.249146
  As 0.916050 0.747736 0.245725
  As 0.918084 0.915496 0.080248
  In 0.667625 0.665977 0.331156
  In 0.667504 0.835003 0.500471
  In 0.823727 0.664701 0.501384
  In 0.831316 0.822519 0.332888
  As 0.745458 0.747913 0.417392
  As 0.747485 0.917838 0.586207
  Sb 0.914353 0.748039 0.586667
  Sb 0.913919 0.915038 0.415989
  In 0.668231 0.667398 0.667258
  In 0.668547 0.831661 0.833818
  In 0.833794 0.668318 0.833071
  In 0.829313 0.838172 0.671869
  As 0.749904 0.749717 0.751147
  As 0.751788 0.913247 0.915454
  As 0.915445 0.749710 0.917256
  As 0.913500 0.918646 0.753733
K_POINTS automatic
  2 2 2 0 0 0

HUBBARD (atomic)
U In-5p -0.9725
U Ga-4p -3.2649999999999997
U As-4p 3.26
U Sb-5p 3.16
