&CONTROL
  calculation = 'scf',
  etot_conv_thr = 0.0001,
  forc_conv_thr = 0.00045,
  outdir = './tmp_In1.0Ga0.0As0.25Sb0.75_cube_3x3x3.5',
  prefix = 'In1.0Ga0.0As0.25Sb0.75_cube_3x3x3.5',
  pseudo_dir = '/work/i254/i254/gentles/data/pseudos/',
  restart_mode = 'from_scratch',
  verbosity = 'low',
/
&SYSTEM
  celldm(1) = 36.39328594849258,
  ecutwfc = 120,
  ibrav = 1,
  nat = 216,
  nbnd = 2160,
  ntyp = 4,
/
&ELECTRONS
  conv_thr = 1d-05,
  mixing_beta = 0.65,
/
&IONS
/
&CELL
  cell_dofree = 'all',
/
ATOMIC_SPECIES
  As  74.9216 As.pbe.NC-SR.standard.v0.5.UPF
  Ga  69.7230 Ga.pbe.NC-SR.standard.v0.5.UPF
  In  114.8180 In.pbe.NC-SR.standard.v0.5.UPF
  Sb  121.7600 Sb.pbe.NC-SR.standard.v0.5.UPF
ATOMIC_POSITIONS crystal
  In -0.004144 0.007362 -0.005852
  In -0.009099 0.169032 0.166541
  In 0.160990 -0.004616 0.172652
  In 0.164159 0.164978 0.000978
  Sb 0.078984 0.083384 0.086735
  Sb 0.081118 0.249021 0.251270
  Sb 0.248872 0.081354 0.251732
  Sb 0.249321 0.249579 0.084438
  In 0.003250 0.003014 0.330744
  In 0.001885 0.161005 0.494305
  In 0.156881 -0.001678 0.497590
  In 0.161716 0.161612 0.336951
  As 0.081298 0.080442 0.414823
  Sb 0.080399 0.248226 0.581449
  Sb 0.248418 0.079101 0.579829
  Sb 0.247896 0.248333 0.416577
  In 0.005218 -0.006564 0.661447
  In -0.008003 0.165865 0.831530
  In 0.171712 -0.003772 0.827005
  In 0.167335 0.166155 0.664536
  Sb 0.082278 0.082164 0.748526
  Sb 0.078766 0.247603 0.916578
  Sb 0.250538 0.081501 0.917267
  Sb 0.249577 0.250390 0.749884
  In -0.004328 0.328528 0.005061
  In -0.004681 0.505508 0.165672
  In 0.169192 0.335381 0.172485
  In 0.164770 0.499475 0.001294
  Sb 0.080804 0.415925 0.086777
  Sb 0.084206 0.583847 0.252539
  As 0.248408 0.416313 0.252348
  Sb 0.249749 0.583355 0.085318
  In 0.002865 0.337894 0.335456
  In 0.004731 0.496254 0.497067
  In 0.161900 0.335760 0.497129
  In 0.165834 0.493575 0.334194
  As 0.084004 0.416269 0.415628
  Sb 0.082896 0.587945 0.579603
  Sb 0.248696 0.417651 0.581532
  Sb 0.247185 0.585940 0.415757
  In -0.006830 0.326501 0.669737
  In -0.002078 0.498586 0.834456
  In 0.163971 0.332964 0.833949
  In 0.163616 0.501242 0.665240
  Sb 0.079734 0.414773 0.748215
  Sb 0.080643 0.583853 0.918269
  Sb 0.249718 0.417356 0.915933
  Sb 0.248653 0.584877 0.748084
  In -0.004544 0.662891 0.006451
  In 0.004450 0.840129 0.171362
  In 0.170551 0.670489 0.172093
  In 0.164853 0.834161 0.000217
  Sb 0.082665 0.750250 0.086973
  As 0.082739 0.917123 0.254710
  As 0.245533 0.752733 0.253269
  Sb 0.248953 0.916709 0.086855
  In 0.005284 0.670240 0.340687
  In 0.004900 0.830962 0.502188
  In 0.167378 0.676825 0.498908
  In 0.162153 0.832168 0.332390
  As 0.084791 0.753541 0.418333
  As 0.084794 0.913818 0.580910
  As 0.248463 0.754078 0.582185
  Sb 0.247161 0.915680 0.418075
  In -0.005871 0.670879 0.661006
  In -0.000399 0.832539 0.831628
  In 0.163726 0.667722 0.832184
  In 0.170124 0.837762 0.661089
  Sb 0.083531 0.752248 0.744010
  Sb 0.082631 0.919335 0.914096
  Sb 0.249497 0.751077 0.915291
  As 0.250237 0.915676 0.744423
  In 0.336371 0.003096 0.005668
  In 0.334740 0.161815 0.164021
  In 0.495110 0.002803 0.163741
  In 0.497176 0.163405 0.004885
  As 0.416341 0.083617 0.084264
  Sb 0.415353 0.247444 0.250631
  Sb 0.580159 0.083155 0.251619
  Sb 0.586518 0.251772 0.079929
  In 0.335206 0.002756 0.339300
  In 0.336764 0.162073 0.496556
  In 0.494825 -0.003761 0.498087
  In 0.495822 0.163845 0.339979
  As 0.417303 0.080779 0.418861
  Sb 0.418968 0.248699 0.582116
  Sb 0.583731 0.078871 0.581423
  Sb 0.584216 0.251628 0.418535
  In 0.332687 -0.007195 0.663524
  In 0.334002 0.166188 0.832882
  In 0.502628 0.001451 0.832557
  In 0.502843 0.165360 0.667497
  Sb 0.415335 0.080681 0.747411
  Sb 0.418481 0.249455 0.917624
  Sb 0.585030 0.085809 0.918162
  Sb 0.586578 0.252618 0.750799
  In 0.333348 0.333045 0.000336
  In 0.329113 0.495767 0.171035
  In 0.502277 0.331289 0.167932
  In 0.505994 0.494419 -0.004095
  Sb 0.417789 0.416304 0.084618
  Sb 0.412813 0.584452 0.251205
  Sb 0.586803 0.416224 0.250475
  Sb 0.585684 0.580089 0.082882
  In 0.328593 0.334608 0.329969
  In 0.333995 0.502579 0.498919
  In 0.504984 0.338474 0.505319
  In 0.499949 0.500714 0.332713
  Sb 0.416607 0.415465 0.416319
  Sb 0.417905 0.584886 0.584819
  As 0.586420 0.419069 0.584325
  Sb 0.585773 0.580904 0.417701
  In 0.334383 0.333302 0.665512
  In 0.334378 0.500314 0.830261
  In 0.505857 0.336021 0.838626
  In 0.508079 0.500968 0.665509
  Sb 0.421876 0.416517 0.749009
  Sb 0.420587 0.581594 0.914494
  As 0.588630 0.415880 0.915558
  As 0.585532 0.579114 0.749497
  In 0.335141 0.665643 -0.000846
  In 0.328139 0.830554 0.174539
  In 0.500424 0.664568 0.167103
  In 0.498325 0.832552 -0.001846
  Sb 0.415038 0.750657 0.086235
  Sb 0.416496 0.917653 0.253061
  Sb 0.583445 0.750407 0.252609
  Sb 0.582447 0.917255 0.082776
  In 0.327691 0.673110 0.330836
  In 0.331561 0.834268 0.506567
  In 0.500490 0.667438 0.498286
  In 0.504263 0.838007 0.339104
  Sb 0.414581 0.753174 0.417489
  As 0.414209 0.916971 0.580807
  Sb 0.583364 0.751996 0.583163
  As 0.581489 0.918025 0.421168
  In 0.327598 0.672081 0.661205
  In 0.329016 0.837560 0.828159
  In 0.503678 0.662182 0.825335
  In 0.495292 0.838398 0.660556
  Sb 0.415388 0.751642 0.746542
  Sb 0.414987 0.918805 0.915472
  Sb 0.583162 0.748810 0.913037
  Sb 0.584146 0.917299 0.746169
  In 0.669347 0.001041 0.001211
  In 0.666553 0.167903 0.168194
  In 0.837973 0.005779 0.171795
  In 0.835768 0.172437 -0.004627
  Sb 0.754161 0.087277 0.083465
  Sb 0.753804 0.250361 0.249788
  As 0.920818 0.083245 0.250519
  As 0.913497 0.248743 0.082118
  In 0.660516 -0.003362 0.338588
  In 0.668128 0.166297 0.500840
  In 0.830970 -0.003788 0.503311
  In 0.839082 0.161432 0.329053
  Sb 0.751001 0.081554 0.415892
  Sb 0.750634 0.252676 0.584704
  Sb 0.918080 0.081624 0.583517
  Sb 0.917638 0.249725 0.414617
  In 0.673530 -0.003058 0.663079
  In 0.671895 0.172223 0.837849
  In 0.838215 0.005235 0.835276
  In 0.838566 0.171117 0.669163
  Sb 0.752199 0.085976 0.750219
  As 0.752999 0.252859 0.915920
  As 0.914479 0.088276 0.915649
  As 0.913386 0.250199 0.752975
  In 0.673117 0.336789 -0.005648
  In 0.672940 0.493430 0.161800
  In 0.833329 0.332376 0.158420
  In 0.832851 0.498648 0.005794
  As 0.752219 0.414087 0.080250
  Sb 0.752172 0.580705 0.248758
  Sb 0.914248 0.416775 0.248982
  As 0.914723 0.581149 0.083163
  In 0.672372 0.335455 0.337032
  In 0.668528 0.492942 0.500232
  In 0.830592 0.335183 0.495545
  In 0.829395 0.496266 0.338324
  As 0.749710 0.415909 0.418271
  Sb 0.749452 0.581255 0.584699
  Sb 0.915835 0.415156 0.583026
  Sb 0.917012 0.582897 0.418908
  In 0.666955 0.340827 0.666212
  In 0.664892 0.495378 0.829819
  In 0.828150 0.331027 0.829511
  In 0.829068 0.494875 0.671158
  As 0.747815 0.415060 0.750756
  Sb 0.749280 0.579410 0.915987
  Sb 0.912974 0.413358 0.917911
  Sb 0.915801 0.582993 0.748431
  In 0.666959 0.666160 -0.001313
  In 0.667764 0.833819 0.167735
  In 0.839860 0.662556 0.165327
  In 0.834415 0.834565 0.002189
  Sb 0.751889 0.748014 0.084702
  Sb 0.750420 0.919258 0.252454
  Sb 0.921207 0.749996 0.250848
  Sb 0.918680 0.921021 0.084339
  In 0.669407 0.665902 0.334048
  In 0.666231 0.840805 0.500992
  In 0.837360 0.669959 0.505982
  In 0.835556 0.833263 0.334157
  Sb 0.750914 0.751960 0.420113
  As 0.750833 0.915779 0.581544
  As 0.918003 0.753849 0.580864
  Sb 0.920869 0.917421 0.417998
  In 0.662141 0.662017 0.669566
  In 0.668312 0.834115 0.830786
  In 0.832892 0.666122 0.833491
  In 0.832978 0.833312 0.657481
  Sb 0.750845 0.749169 0.745952
  Sb 0.752647 0.918244 0.915630
  Sb 0.917153 0.748966 0.918593
  Sb 0.915443 0.916290 0.746922
K_POINTS automatic
  2 2 2 0 0 0

HUBBARD (atomic)
U In-5p -1.0575
U Ga-4p -2.335
U As-4p 3.26
U Sb-5p 3.16
