&CONTROL
  calculation = 'scf',
  etot_conv_thr = 0.0001,
  forc_conv_thr = 0.00045,
  outdir = './tmp_In0.0Ga1.0As0.25Sb0.75_cube_3x3x3.0',
  prefix = 'In0.0Ga1.0As0.25Sb0.75_cube_3x3x3.0',
  pseudo_dir = '/work/i254/i254/gentles/data/pseudos/',
  restart_mode = 'from_scratch',
  verbosity = 'low',
/
&SYSTEM
  celldm(1) = 34.03371909697179,
  ecutwfc = 120,
  ibrav = 1,
  nat = 216,
  nbnd = 2160,
  ntyp = 4,
/
&ELECTRONS
  conv_thr = 1d-05,
  mixing_beta = 0.65,
/
&IONS
/
&CELL
  cell_dofree = 'all',
/
ATOMIC_SPECIES
  As  74.9216 As.pbe.NC-SR.standard.v0.5.UPF
  Ga  69.7230 Ga.pbe.NC-SR.standard.v0.5.UPF
  In  114.8180 In.pbe.NC-SR.standard.v0.5.UPF
  Sb  121.7600 Sb.pbe.NC-SR.standard.v0.5.UPF
ATOMIC_POSITIONS crystal
  Ga 0.005801 0.003705 0.005045
  Ga 0.000950 0.164128 0.157622
  Ga 0.162917 0.008899 0.166778
  Ga 0.160493 0.161204 -0.005951
  As 0.084734 0.085343 0.081284
  Sb 0.081014 0.243877 0.250946
  As 0.243859 0.083055 0.250817
  Sb 0.244086 0.246511 0.081805
  Ga -0.001988 0.000088 0.343079
  Ga 0.003941 0.170809 0.494904
  Ga 0.155440 0.000641 0.501029
  Ga 0.162943 0.155911 0.335527
  As 0.079792 0.082288 0.418725
  As 0.080869 0.249585 0.581306
  Sb 0.244557 0.081589 0.583282
  Sb 0.245179 0.246856 0.419171
  Ga 0.005494 -0.003157 0.662463
  Ga 0.001010 0.172779 0.832568
  Ga 0.175197 -0.001183 0.832548
  Ga 0.160683 0.171288 0.661411
  Sb 0.085233 0.083307 0.750202
  As 0.081235 0.245369 0.917386
  As 0.245511 0.083017 0.915397
  Sb 0.246280 0.250950 0.749765
  Ga 0.001354 0.322379 -0.000315
  Ga -0.004342 0.503181 0.164386
  Ga 0.163240 0.332892 0.168966
  Ga 0.165181 0.499476 -0.001271
  Sb 0.079360 0.414971 0.082412
  Sb 0.080966 0.586331 0.250013
  Sb 0.248354 0.418088 0.251860
  Sb 0.248176 0.584776 0.082195
  Ga -0.002075 0.328169 0.337224
  Ga -0.000101 0.502565 0.501875
  Ga 0.164297 0.333639 0.509645
  Ga 0.168253 0.505249 0.338258
  Sb 0.083716 0.416345 0.419283
  Sb 0.086908 0.584142 0.585698
  As 0.247058 0.417422 0.583776
  As 0.248367 0.582757 0.419459
  Ga 0.000474 0.324911 0.664760
  Ga 0.001521 0.498747 0.832598
  Ga 0.159811 0.326878 0.839430
  Ga 0.174381 0.499275 0.667467
  Sb 0.084864 0.413108 0.748338
  Sb 0.083188 0.586612 0.915358
  Sb 0.247614 0.415394 0.914913
  As 0.247881 0.585209 0.748053
  Ga 0.000763 0.666364 0.008508
  Ga -0.000874 0.827512 0.168943
  Ga 0.161043 0.671296 0.162443
  Ga 0.159304 0.828777 0.004821
  As 0.079176 0.749578 0.085883
  Sb 0.080248 0.919727 0.250791
  Sb 0.248088 0.748455 0.250249
  Sb 0.245512 0.918937 0.084236
  Ga -0.006496 0.672623 0.329990
  Ga 0.000769 0.841951 0.500370
  Ga 0.169175 0.664316 0.496523
  Ga 0.165722 0.834949 0.332258
  Sb 0.081307 0.751855 0.416834
  As 0.082452 0.917398 0.582953
  Sb 0.247090 0.751145 0.586445
  Sb 0.245636 0.920128 0.417797
  Ga 0.006348 0.674484 0.668849
  Ga 0.005766 0.828887 0.828414
  Ga 0.165336 0.667783 0.823194
  Ga 0.161397 0.838777 0.667766
  As 0.086392 0.753357 0.747167
  Sb 0.084916 0.917033 0.915936
  Sb 0.246390 0.751160 0.912719
  As 0.247361 0.914396 0.748343
  Ga 0.326018 0.004154 -0.006069
  Ga 0.324294 0.161913 0.171485
  Ga 0.498503 -0.000483 0.165423
  Ga 0.503176 0.171748 0.006316
  Sb 0.412381 0.084059 0.083110
  Sb 0.415605 0.247380 0.248660
  Sb 0.585449 0.080749 0.249711
  As 0.585753 0.250519 0.083606
  Ga 0.325303 0.004663 0.328777
  Ga 0.332806 0.162906 0.500404
  Ga 0.505415 -0.006786 0.494714
  Ga 0.502064 0.165883 0.333997
  Sb 0.416951 0.080067 0.415008
  Sb 0.413625 0.250205 0.584057
  Sb 0.583205 0.080337 0.581896
  Sb 0.586668 0.251642 0.417413
  Ga 0.325364 -0.005406 0.669157
  Ga 0.326040 0.162371 0.837132
  Ga 0.500543 0.000780 0.832491
  Ga 0.496998 0.164234 0.667213
  Sb 0.410886 0.080828 0.750952
  Sb 0.414910 0.247655 0.917598
  Sb 0.582897 0.084926 0.919025
  Sb 0.583443 0.248836 0.749061
  Ga 0.331444 0.332299 0.000661
  Ga 0.332845 0.500460 0.166829
  Ga 0.504884 0.327936 0.162974
  Ga 0.498404 0.500733 -0.002024
  Sb 0.417467 0.415259 0.083704
  Sb 0.415257 0.584544 0.251983
  Sb 0.584856 0.414831 0.250793
  Sb 0.582912 0.583678 0.084207
  Ga 0.331527 0.331635 0.334599
  Ga 0.323125 0.499717 0.502140
  Ga 0.499087 0.334094 0.501329
  Ga 0.500451 0.500457 0.333672
  Sb 0.413161 0.418554 0.418936
  Sb 0.412613 0.583731 0.585867
  Sb 0.585287 0.418637 0.582937
  Sb 0.588262 0.583481 0.416491
  Ga 0.327780 0.339131 0.662858
  Ga 0.325280 0.504942 0.828059
  Ga 0.496017 0.332803 0.831430
  Ga 0.504353 0.505422 0.669497
  Sb 0.414265 0.420673 0.747549
  Sb 0.415158 0.584306 0.911424
  Sb 0.582418 0.415886 0.915275
  As 0.581668 0.585244 0.749983
  Ga 0.332274 0.667934 -0.003465
  Ga 0.332759 0.834722 0.168462
  Ga 0.500726 0.669517 0.169481
  Ga 0.499150 0.834260 -0.001048
  Sb 0.415638 0.750973 0.083244
  Sb 0.416069 0.918376 0.253408
  Sb 0.586598 0.754051 0.253648
  Sb 0.586583 0.915777 0.084664
  Ga 0.327558 0.662058 0.338780
  Ga 0.331131 0.834541 0.501166
  Ga 0.499677 0.665531 0.500680
  Ga 0.504186 0.838131 0.339753
  Sb 0.415314 0.750105 0.417004
  Sb 0.416482 0.916274 0.584161
  Sb 0.584892 0.751096 0.582574
  As 0.588465 0.914957 0.416954
  Ga 0.331284 0.667967 0.674327
  Ga 0.331172 0.832972 0.824297
  Ga 0.498340 0.667783 0.824488
  Ga 0.494350 0.827655 0.669680
  As 0.413838 0.748801 0.749636
  Sb 0.412919 0.917105 0.913050
  Sb 0.581785 0.749233 0.914044
  Sb 0.583800 0.915750 0.746857
  Ga 0.669079 0.001509 0.000839
  Ga 0.664282 0.170697 0.165096
  Ga 0.829589 -0.004477 0.176913
  Ga 0.839083 0.169054 0.005893
  Sb 0.752325 0.083867 0.087739
  Sb 0.753769 0.250444 0.250378
  Sb 0.919630 0.082955 0.251311
  As 0.921100 0.246821 0.082193
  Ga 0.669254 -0.008485 0.333288
  Ga 0.669347 0.164155 0.500572
  Ga 0.835806 -0.008036 0.499050
  Ga 0.840163 0.169524 0.337164
  Sb 0.753462 0.079259 0.415759
  Sb 0.755789 0.249370 0.581925
  Sb 0.921182 0.083095 0.579977
  As 0.919019 0.249718 0.416990
  Ga 0.672827 -0.005711 0.658704
  Ga 0.668700 0.164577 0.832773
  Ga 0.838677 0.000631 0.833347
  Ga 0.842711 0.169789 0.669860
  Sb 0.753856 0.081696 0.746524
  Sb 0.753332 0.248798 0.917319
  Sb 0.920865 0.086247 0.918843
  As 0.920869 0.250389 0.750205
  Ga 0.665277 0.330746 0.002194
  Ga 0.668980 0.501011 0.168541
  Ga 0.841682 0.326871 0.162000
  Ga 0.839169 0.504076 0.004121
  Sb 0.753825 0.415496 0.084287
  Sb 0.753855 0.585889 0.252804
  Sb 0.917011 0.414450 0.250713
  As 0.918866 0.585469 0.085483
  Ga 0.673927 0.337561 0.336749
  Ga 0.674017 0.494277 0.495057
  Ga 0.835899 0.331616 0.491037
  Ga 0.829811 0.494164 0.337345
  As 0.753530 0.413870 0.416742
  Sb 0.750111 0.584770 0.580453
  Sb 0.917391 0.412760 0.581152
  Sb 0.913375 0.584856 0.416185
  Ga 0.668824 0.332730 0.664775
  Ga 0.662673 0.504552 0.830059
  Ga 0.838348 0.331023 0.829090
  Ga 0.836065 0.501400 0.663533
  Sb 0.751015 0.418766 0.749078
  Sb 0.751234 0.584016 0.916847
  Sb 0.919637 0.413822 0.918373
  Sb 0.920611 0.585426 0.748072
  Ga 0.667433 0.668479 0.001367
  Ga 0.674924 0.837151 0.172916
  Ga 0.843339 0.667009 0.168577
  Ga 0.836667 0.835512 -0.000518
  Sb 0.755043 0.750617 0.085998
  As 0.753229 0.913571 0.256111
  As 0.916022 0.752489 0.250425
  Sb 0.917972 0.918037 0.087430
  Ga 0.674225 0.674586 0.339002
  Ga 0.672201 0.837135 0.495792
  Ga 0.829707 0.674741 0.495714
  Ga 0.836845 0.834163 0.334094
  As 0.753745 0.757309 0.415915
  As 0.751564 0.915551 0.577587
  Sb 0.917803 0.754130 0.581685
  As 0.917330 0.915583 0.417437
  Ga 0.662043 0.661472 0.669197
  Ga 0.667320 0.833705 0.832581
  Ga 0.835647 0.667880 0.832609
  Ga 0.827857 0.836967 0.660317
  Sb 0.749363 0.749252 0.747408
  Sb 0.752019 0.917869 0.915681
  Sb 0.921217 0.749482 0.917890
  Sb 0.918336 0.914346 0.746357
K_POINTS automatic
  2 2 2 0 0 0

HUBBARD (atomic)
U In-5p -1.0575
U Ga-4p -2.335
U As-4p 5.84
U Sb-5p 4.89
