&CONTROL
  calculation = 'scf',
  etot_conv_thr = 0.0001,
  forc_conv_thr = 0.00045,
  outdir = './tmp_In1.0Ga0.0As0.5Sb0.5_cube_3x3x3.4',
  prefix = 'In1.0Ga0.0As0.5Sb0.5_cube_3x3x3.4',
  pseudo_dir = '/work/i254/i254/gentles/data/pseudos/',
  restart_mode = 'from_scratch',
  verbosity = 'low',
/
&SYSTEM
  celldm(1) = 35.75906730348975,
  ecutwfc = 120,
  ibrav = 1,
  nat = 216,
  nbnd = 2160,
  ntyp = 4,
/
&ELECTRONS
  conv_thr = 1d-05,
  mixing_beta = 0.65,
/
&IONS
/
&CELL
  cell_dofree = 'all',
/
ATOMIC_SPECIES
  As  74.9216 As.pbe.NC-SR.standard.v0.5.UPF
  Ga  69.7230 Ga.pbe.NC-SR.standard.v0.5.UPF
  In  114.8180 In.pbe.NC-SR.standard.v0.5.UPF
  Sb  121.7600 Sb.pbe.NC-SR.standard.v0.5.UPF
ATOMIC_POSITIONS crystal
  In 0.004552 0.001880 0.001924
  In -0.005254 0.163547 0.161029
  In 0.168156 0.002506 0.159201
  In 0.155763 0.170175 0.000818
  As 0.081600 0.084754 0.082819
  Sb 0.079563 0.248365 0.249142
  Sb 0.253361 0.083362 0.250086
  Sb 0.250152 0.249087 0.083964
  In 0.000010 0.008718 0.328881
  In -0.004609 0.164176 0.496471
  In 0.164646 0.001305 0.490266
  In 0.165399 0.166211 0.337513
  As 0.080583 0.085381 0.414860
  Sb 0.078829 0.251071 0.582495
  Sb 0.250862 0.085518 0.576323
  As 0.251996 0.248744 0.410663
  In -0.011237 0.003320 0.667283
  In -0.002731 0.176563 0.832068
  In 0.162154 -0.004402 0.840467
  In 0.165587 0.166429 0.665816
  Sb 0.079746 0.083113 0.752657
  As 0.078137 0.253264 0.917341
  Sb 0.247053 0.083283 0.922864
  Sb 0.247067 0.253082 0.754172
  In -0.005960 0.330531 -0.002173
  In -0.006112 0.493410 0.170333
  In 0.169954 0.336609 0.170787
  In 0.171999 0.504028 -0.000962
  Sb 0.083242 0.416052 0.081139
  Sb 0.081344 0.583213 0.247006
  As 0.252978 0.416226 0.249942
  As 0.251187 0.582920 0.085758
  In -0.010529 0.330432 0.332531
  In -0.010470 0.498757 0.499330
  In 0.170187 0.327316 0.494079
  In 0.168160 0.494865 0.328365
  Sb 0.079142 0.414414 0.414707
  Sb 0.079090 0.579625 0.584168
  Sb 0.249041 0.413647 0.584394
  Sb 0.252209 0.582696 0.411066
  In -0.005071 0.338658 0.670014
  In 0.000233 0.495283 0.842030
  In 0.160204 0.337470 0.839946
  In 0.159634 0.492848 0.672367
  As 0.077873 0.415268 0.756049
  As 0.083572 0.579694 0.920124
  As 0.247950 0.418554 0.916116
  Sb 0.249348 0.580601 0.751764
  In 0.006341 0.665837 -0.000037
  In -0.001159 0.823117 0.167831
  In 0.165621 0.667230 0.158008
  In 0.163927 0.838435 0.005036
  As 0.083498 0.750315 0.081621
  Sb 0.083206 0.917864 0.246059
  Sb 0.253191 0.750745 0.244213
  As 0.251074 0.917630 0.084449
  In -0.008307 0.664623 0.332706
  In -0.003020 0.834485 0.498678
  In 0.166114 0.663543 0.498772
  In 0.171845 0.837427 0.333121
  Sb 0.082195 0.750009 0.414004
  Sb 0.080068 0.921271 0.582659
  Sb 0.252342 0.749578 0.582452
  As 0.251327 0.919608 0.413317
  In -0.004449 0.666147 0.668711
  In -0.001806 0.842360 0.835530
  In 0.162724 0.661923 0.840191
  In 0.165410 0.833658 0.666049
  Sb 0.081020 0.751072 0.753891
  As 0.081295 0.916841 0.921835
  Sb 0.249702 0.749482 0.923087
  Sb 0.250809 0.916296 0.752294
  In 0.334480 0.000702 0.009384
  In 0.343373 0.166586 0.165656
  In 0.501331 -0.000327 0.165699
  In 0.504929 0.163902 0.006520
  As 0.421295 0.082178 0.085497
  As 0.420086 0.248189 0.249420
  As 0.580538 0.080715 0.249016
  As 0.583573 0.248732 0.086883
  In 0.339473 -0.004360 0.333230
  In 0.336989 0.167501 0.488018
  In 0.506952 0.004384 0.492478
  In 0.498305 0.162327 0.329254
  As 0.419600 0.081337 0.412198
  Sb 0.418656 0.249972 0.581078
  As 0.585580 0.084278 0.578027
  Sb 0.585341 0.250368 0.413932
  In 0.334226 0.001283 0.664920
  In 0.332731 0.166485 0.836323
  In 0.505932 0.004583 0.841992
  In 0.506360 0.162863 0.661487
  Sb 0.420180 0.083747 0.751390
  Sb 0.419424 0.250297 0.920095
  As 0.586891 0.084846 0.923323
  Sb 0.588255 0.250064 0.749205
  In 0.329034 0.338282 -0.002715
  In 0.331407 0.503115 0.170762
  In 0.504210 0.329619 0.171170
  In 0.505763 0.503861 0.005924
  Sb 0.417397 0.416990 0.086917
  As 0.421358 0.583284 0.244729
  As 0.585508 0.417246 0.246670
  As 0.584923 0.584660 0.086355
  In 0.333075 0.328887 0.327036
  In 0.333668 0.499135 0.499102
  In 0.506103 0.337775 0.501923
  In 0.504670 0.502915 0.324434
  Sb 0.419599 0.416741 0.411256
  Sb 0.421031 0.581026 0.584608
  As 0.588173 0.416356 0.583234
  As 0.584763 0.580779 0.410947
  In 0.338238 0.335110 0.671804
  In 0.335169 0.493293 0.834529
  In 0.499825 0.336054 0.830796
  In 0.504935 0.492598 0.667936
  As 0.419414 0.416774 0.750985
  Sb 0.417116 0.584408 0.919886
  Sb 0.588066 0.415675 0.919645
  Sb 0.586644 0.583768 0.752171
  In 0.335636 0.667378 0.011972
  In 0.339559 0.838594 0.162926
  In 0.502896 0.668353 0.167306
  In 0.506769 0.827486 0.006421
  As 0.421220 0.750502 0.087225
  As 0.420323 0.918126 0.247029
  As 0.583105 0.751820 0.249268
  As 0.582826 0.916256 0.085139
  In 0.341274 0.663783 0.325098
  In 0.330954 0.837449 0.493550
  In 0.506424 0.661000 0.494630
  In 0.504111 0.837864 0.326757
  Sb 0.420836 0.751200 0.412616
  Sb 0.420285 0.918804 0.578653
  Sb 0.586793 0.751141 0.580169
  As 0.584344 0.918737 0.410403
  In 0.339062 0.668581 0.671809
  In 0.338436 0.829750 0.834084
  In 0.501888 0.672895 0.836122
  In 0.497550 0.830456 0.668923
  As 0.419376 0.749864 0.752576
  Sb 0.420658 0.915367 0.923558
  As 0.585746 0.748193 0.920058
  Sb 0.584617 0.915787 0.753638
  In 0.664099 -0.005194 -0.000608
  In 0.658547 0.165006 0.169172
  In 0.832069 0.000211 0.176123
  In 0.832020 0.172977 0.002534
  Sb 0.747842 0.082300 0.085424
  Sb 0.750123 0.252368 0.246747
  As 0.915828 0.086701 0.248764
  As 0.915649 0.251458 0.082867
  In 0.663936 -0.001092 0.328674
  In 0.669811 0.169780 0.505090
  In 0.836007 0.004315 0.503877
  In 0.838041 0.168995 0.331716
  Sb 0.749931 0.084326 0.415037
  As 0.752593 0.252396 0.583507
  As 0.914436 0.088142 0.583453
  As 0.913594 0.248843 0.417561
  In 0.661991 0.004106 0.662733
  In 0.669092 0.168165 0.844258
  In 0.830613 -0.005056 0.834195
  In 0.836615 0.173687 0.664715
  Sb 0.750042 0.086477 0.749869
  As 0.751680 0.252387 0.920135
  Sb 0.915736 0.085438 0.917079
  As 0.914342 0.255274 0.749874
  In 0.669924 0.327554 0.006241
  In 0.665179 0.495878 0.161237
  In 0.835375 0.337435 0.161270
  In 0.828632 0.495775 -0.004090
  As 0.749871 0.415599 0.081173
  Sb 0.747692 0.581262 0.250494
  As 0.911454 0.414113 0.251277
  Sb 0.915094 0.581223 0.081583
  In 0.669013 0.341799 0.331829
  In 0.663200 0.497355 0.494913
  In 0.831643 0.330975 0.498629
  In 0.832936 0.495356 0.336190
  As 0.750601 0.416083 0.418508
  Sb 0.750028 0.580897 0.580875
  As 0.913324 0.412721 0.581161
  As 0.912558 0.581247 0.414180
  In 0.673220 0.336544 0.663599
  In 0.675787 0.497958 0.833223
  In 0.831571 0.333092 0.833759
  In 0.833432 0.490557 0.664964
  As 0.752505 0.414217 0.749822
  As 0.748775 0.580957 0.918050
  As 0.912818 0.413429 0.917433
  Sb 0.913749 0.577718 0.754028
  In 0.663386 0.659967 -0.002064
  In 0.662435 0.837192 0.169416
  In 0.834261 0.669175 0.168600
  In 0.828163 0.838592 -0.001012
  Sb 0.745213 0.750503 0.083021
  As 0.746360 0.916474 0.249960
  As 0.913416 0.748765 0.251225
  Sb 0.916866 0.916999 0.087189
  In 0.661950 0.669898 0.333286
  In 0.667816 0.836198 0.489167
  In 0.829131 0.666110 0.489362
  In 0.827263 0.831574 0.327587
  As 0.747303 0.750368 0.410400
  Sb 0.749879 0.916007 0.584154
  Sb 0.909974 0.749568 0.582422
  Sb 0.914204 0.919622 0.411358
  In 0.672919 0.671122 0.669461
  In 0.669422 0.828617 0.839406
  In 0.826738 0.664255 0.836862
  In 0.830807 0.832244 0.677143
  As 0.750057 0.749223 0.756433
  As 0.747091 0.916312 0.916408
  Sb 0.915660 0.751099 0.917694
  As 0.913825 0.917899 0.751839
K_POINTS automatic
  2 2 2 0 0 0

HUBBARD (atomic)
U In-5p -1.0150000000000001
U Ga-4p -2.8
U As-4p 3.26
U Sb-5p 3.16
