&CONTROL
  calculation = 'scf',
  etot_conv_thr = 0.0001,
  forc_conv_thr = 0.00045,
  outdir = './tmp_In1.0Ga0.0As0.5Sb0.5_cube_3x3x3.8',
  prefix = 'In1.0Ga0.0As0.5Sb0.5_cube_3x3x3.8',
  pseudo_dir = '/work/i254/i254/gentles/data/pseudos/',
  restart_mode = 'from_scratch',
  verbosity = 'low',
/
&SYSTEM
  celldm(1) = 35.752636948827146,
  ecutwfc = 120,
  ibrav = 1,
  nat = 216,
  nbnd = 2160,
  ntyp = 4,
/
&ELECTRONS
  conv_thr = 1d-05,
  mixing_beta = 0.65,
/
&IONS
/
&CELL
  cell_dofree = 'all',
/
ATOMIC_SPECIES
  As  74.9216 As.pbe.NC-SR.standard.v0.5.UPF
  Ga  69.7230 Ga.pbe.NC-SR.standard.v0.5.UPF
  In  114.8180 In.pbe.NC-SR.standard.v0.5.UPF
  Sb  121.7600 Sb.pbe.NC-SR.standard.v0.5.UPF
ATOMIC_POSITIONS crystal
  In 0.005471 -0.002618 -0.005540
  In -0.000100 0.166794 0.167248
  In 0.172875 0.004023 0.173214
  In 0.176307 0.167723 -0.001692
  Sb 0.087895 0.083761 0.082600
  Sb 0.084700 0.253183 0.251848
  As 0.255119 0.086443 0.250660
  As 0.252851 0.247960 0.085999
  In -0.006048 -0.002916 0.341772
  In -0.000693 0.167949 0.508879
  In 0.167418 0.000245 0.511482
  In 0.171265 0.163523 0.331802
  Sb 0.084149 0.083411 0.421825
  As 0.080459 0.251866 0.586562
  As 0.251037 0.086388 0.585623
  Sb 0.252486 0.250555 0.418726
  In -0.003364 -0.005145 0.662770
  In -0.004161 0.170944 0.825683
  In 0.164542 0.001796 0.839020
  In 0.168733 0.170953 0.661147
  Sb 0.082804 0.083247 0.745401
  Sb 0.086911 0.250257 0.911754
  As 0.252479 0.084170 0.914203
  As 0.250145 0.247492 0.744852
  In 0.000886 0.332266 0.000216
  In -0.010526 0.500654 0.168158
  In 0.175424 0.333542 0.167759
  In 0.159098 0.503689 -0.005583
  Sb 0.082727 0.418023 0.087013
  Sb 0.082682 0.579251 0.253971
  As 0.251386 0.415000 0.253910
  Sb 0.250337 0.581695 0.080291
  In -0.000514 0.342490 0.335443
  In 0.003151 0.495222 0.503878
  In 0.157531 0.330861 0.499624
  In 0.171010 0.494768 0.339214
  As 0.083515 0.417390 0.418892
  As 0.082122 0.582502 0.581447
  Sb 0.248018 0.414479 0.582540
  As 0.249139 0.581038 0.420294
  In -0.002370 0.334454 0.666516
  In 0.007265 0.499098 0.828984
  In 0.168148 0.333715 0.819924
  In 0.159372 0.500221 0.665401
  As 0.081967 0.415468 0.744809
  As 0.080425 0.585079 0.913250
  Sb 0.247376 0.415545 0.914230
  Sb 0.248371 0.583415 0.749438
  In -0.006194 0.662046 -0.005721
  In 0.000162 0.833997 0.165854
  In 0.165407 0.664884 0.166339
  In 0.165847 0.833162 -0.008593
  Sb 0.081264 0.748029 0.077680
  Sb 0.082800 0.917903 0.254349
  Sb 0.247813 0.748935 0.255240
  Sb 0.249548 0.919424 0.079113
  In 0.004235 0.668468 0.341742
  In -0.000613 0.833499 0.502184
  In 0.165660 0.663062 0.500991
  In 0.161147 0.830326 0.342603
  As 0.082403 0.749016 0.424822
  As 0.081436 0.915078 0.583203
  As 0.247442 0.747962 0.578967
  Sb 0.250602 0.918296 0.420925
  In -0.000212 0.667554 0.658043
  In -0.004886 0.835808 0.833748
  In 0.166362 0.669018 0.838367
  In 0.167179 0.833438 0.659377
  Sb 0.082264 0.751123 0.748439
  As 0.082368 0.914904 0.912617
  As 0.250512 0.750645 0.915712
  Sb 0.248840 0.919368 0.749819
  In 0.337022 0.005780 -0.004274
  In 0.335656 0.167718 0.167577
  In 0.497583 0.005078 0.164929
  In 0.499427 0.159614 0.000066
  As 0.415074 0.084688 0.083337
  As 0.414947 0.249756 0.252502
  Sb 0.583170 0.089522 0.251956
  Sb 0.585083 0.248940 0.081350
  In 0.334240 0.009441 0.337415
  In 0.336332 0.164178 0.505320
  In 0.499099 0.010863 0.500199
  In 0.496702 0.173183 0.338358
  As 0.416729 0.089463 0.418687
  As 0.419133 0.245918 0.584059
  As 0.582823 0.088346 0.582421
  As 0.582695 0.248873 0.420146
  In 0.333637 0.008982 0.668554
  In 0.329425 0.164314 0.826624
  In 0.496660 0.005345 0.833630
  In 0.501172 0.166971 0.667728
  As 0.417596 0.086858 0.748903
  Sb 0.417266 0.247690 0.913086
  As 0.581280 0.084259 0.914989
  As 0.583465 0.246954 0.749318
  In 0.329803 0.328038 0.001917
  In 0.329619 0.496263 0.171904
  In 0.498097 0.327710 0.171460
  In 0.499985 0.496872 -0.006964
  Sb 0.416152 0.414406 0.084244
  Sb 0.416576 0.580665 0.256399
  Sb 0.584674 0.412955 0.256265
  Sb 0.584925 0.581031 0.080789
  In 0.337384 0.336919 0.331864
  In 0.335120 0.500085 0.497711
  In 0.495758 0.328373 0.497737
  In 0.502055 0.496843 0.344595
  As 0.416320 0.414805 0.418885
  As 0.415188 0.584353 0.577654
  Sb 0.584095 0.414362 0.579303
  As 0.585185 0.581348 0.419149
  In 0.334464 0.324491 0.664264
  In 0.337425 0.501301 0.834991
  In 0.508787 0.333207 0.830596
  In 0.496968 0.503651 0.658671
  Sb 0.418528 0.414897 0.746839
  As 0.417252 0.581426 0.916134
  As 0.585152 0.416438 0.914346
  Sb 0.585546 0.581351 0.749165
  In 0.333690 0.666178 -0.007751
  In 0.331075 0.834009 0.167375
  In 0.498074 0.664788 0.165305
  In 0.497909 0.841502 -0.007115
  Sb 0.416316 0.752198 0.078977
  Sb 0.416014 0.919009 0.253498
  Sb 0.584098 0.747236 0.251671
  Sb 0.585218 0.919835 0.081804
  In 0.331779 0.664721 0.343109
  In 0.334268 0.826113 0.500439
  In 0.500402 0.662810 0.497237
  In 0.496845 0.829267 0.340039
  As 0.416768 0.745716 0.420346
  Sb 0.414890 0.920141 0.582387
  Sb 0.585997 0.747609 0.584541
  Sb 0.583038 0.919408 0.420921
  In 0.330299 0.666045 0.657019
  In 0.332085 0.835079 0.838050
  In 0.497050 0.661581 0.834964
  In 0.499328 0.834002 0.667272
  Sb 0.412818 0.748024 0.749737
  As 0.415256 0.922122 0.913560
  Sb 0.584490 0.750182 0.914236
  Sb 0.584516 0.921568 0.747701
  In 0.666832 0.007879 -0.003851
  In 0.674558 0.170596 0.168352
  In 0.828948 0.005695 0.158916
  In 0.823741 0.167199 -0.002805
  As 0.746654 0.087236 0.080911
  As 0.749908 0.250796 0.256230
  Sb 0.912762 0.083462 0.252761
  Sb 0.911642 0.249248 0.083811
  In 0.669166 0.005111 0.337824
  In 0.665937 0.168007 0.501445
  In 0.833610 0.002330 0.502046
  In 0.826408 0.167511 0.338377
  As 0.749069 0.084650 0.422191
  As 0.749956 0.250116 0.581312
  As 0.916415 0.082263 0.584100
  Sb 0.915101 0.253618 0.420703
  In 0.667133 0.003404 0.656339
  In 0.661785 0.168367 0.834942
  In 0.836666 -0.004095 0.825716
  In 0.836457 0.170611 0.660583
  Sb 0.749757 0.086544 0.746590
  As 0.746441 0.249250 0.913212
  Sb 0.915500 0.084307 0.913739
  As 0.915775 0.251297 0.744573
  In 0.667312 0.334710 -0.007198
  In 0.668756 0.500386 0.171543
  In 0.832792 0.332696 0.177106
  In 0.833892 0.506671 -0.001786
  Sb 0.752129 0.416498 0.083581
  As 0.750907 0.580371 0.251479
  As 0.913594 0.418001 0.252946
  As 0.913947 0.584469 0.082542
  In 0.669221 0.328403 0.342247
  In 0.671274 0.502899 0.497377
  In 0.829003 0.339176 0.504719
  In 0.829326 0.496086 0.332841
  As 0.749734 0.416947 0.418202
  As 0.752473 0.581321 0.582984
  As 0.917879 0.415326 0.583326
  Sb 0.915795 0.580027 0.420709
  In 0.665315 0.324013 0.665846
  In 0.669339 0.499540 0.839358
  In 0.833322 0.324725 0.831090
  In 0.834150 0.497292 0.659882
  Sb 0.749469 0.413190 0.748604
  As 0.751987 0.586217 0.915492
  Sb 0.917125 0.416882 0.913455
  Sb 0.916897 0.583538 0.746622
  In 0.673553 0.667061 -0.000576
  In 0.671051 0.829003 0.163536
  In 0.830309 0.661906 0.166485
  In 0.833649 0.823795 -0.000460
  As 0.752639 0.745763 0.084055
  Sb 0.751528 0.918894 0.249890
  Sb 0.917407 0.747934 0.252122
  Sb 0.915654 0.916876 0.079249
  In 0.667879 0.658018 0.334802
  In 0.671949 0.838298 0.505946
  In 0.834943 0.666801 0.508847
  In 0.837831 0.837314 0.338795
  Sb 0.750917 0.748646 0.419326
  As 0.754598 0.919123 0.584695
  As 0.917006 0.752818 0.583527
  As 0.915608 0.916685 0.424093
  In 0.676523 0.664247 0.667174
  In 0.670810 0.830068 0.824909
  In 0.831636 0.669705 0.833026
  In 0.835248 0.833618 0.665934
  As 0.754837 0.749950 0.746257
  Sb 0.751542 0.914658 0.915231
  As 0.915313 0.748307 0.914202
  As 0.917007 0.914262 0.746559
K_POINTS automatic
  2 2 2 0 0 0

HUBBARD (atomic)
U In-5p -1.0150000000000001
U Ga-4p -2.8
U As-4p 3.26
U Sb-5p 3.16
