&CONTROL
  calculation = 'scf',
  etot_conv_thr = 0.0001,
  forc_conv_thr = 0.00045,
  outdir = './tmp_In1.0Ga0.0As0.5Sb0.5_cube_3x3x3.1',
  prefix = 'In1.0Ga0.0As0.5Sb0.5_cube_3x3x3.1',
  pseudo_dir = '/work/i254/i254/gentles/data/pseudos/',
  restart_mode = 'from_scratch',
  verbosity = 'low',
/
&SYSTEM
  celldm(1) = 35.74754043328215,
  ecutwfc = 120,
  ibrav = 1,
  nat = 216,
  nbnd = 2160,
  ntyp = 4,
/
&ELECTRONS
  conv_thr = 1d-05,
  mixing_beta = 0.65,
/
&IONS
/
&CELL
  cell_dofree = 'all',
/
ATOMIC_SPECIES
  As  74.9216 As.pbe.NC-SR.standard.v0.5.UPF
  Ga  69.7230 Ga.pbe.NC-SR.standard.v0.5.UPF
  In  114.8180 In.pbe.NC-SR.standard.v0.5.UPF
  Sb  121.7600 Sb.pbe.NC-SR.standard.v0.5.UPF
ATOMIC_POSITIONS crystal
  In -0.000902 -0.002771 -0.000882
  In 0.006392 0.160286 0.160201
  In 0.169379 0.002620 0.161947
  In 0.166100 0.158284 -0.002566
  As 0.084421 0.077924 0.078477
  Sb 0.082148 0.247757 0.251643
  As 0.250191 0.080678 0.248127
  Sb 0.249951 0.247292 0.081750
  In 0.004829 -0.000782 0.336728
  In 0.000048 0.166999 0.493044
  In 0.156993 -0.002628 0.500356
  In 0.166499 0.155485 0.332821
  As 0.082527 0.081792 0.417402
  Sb 0.081186 0.248743 0.586125
  Sb 0.247413 0.078978 0.585148
  Sb 0.249239 0.246947 0.413605
  In 0.004391 -0.005667 0.672247
  In -0.004220 0.161655 0.829404
  In 0.162641 0.000134 0.837881
  In 0.162258 0.160906 0.673842
  As 0.081213 0.078778 0.754085
  Sb 0.083063 0.247990 0.912937
  As 0.248564 0.079538 0.916103
  Sb 0.249993 0.250237 0.753989
  In 0.000730 0.334718 -0.001336
  In -0.002956 0.506955 0.169204
  In 0.166484 0.335457 0.166978
  In 0.170129 0.505822 -0.003359
  Sb 0.083115 0.422627 0.082913
  As 0.081139 0.588459 0.248085
  Sb 0.251375 0.422255 0.250380
  As 0.245761 0.586697 0.084004
  In -0.008318 0.335662 0.332869
  In -0.002175 0.510279 0.498926
  In 0.165567 0.333263 0.499555
  In 0.163832 0.510259 0.331881
  Sb 0.080354 0.421174 0.415314
  As 0.080632 0.586725 0.583056
  Sb 0.248299 0.419922 0.584015
  As 0.247194 0.588205 0.414562
  In -0.000997 0.334148 0.675564
  In 0.003719 0.506461 0.829624
  In 0.165603 0.342379 0.833921
  In 0.155657 0.501700 0.665401
  As 0.081515 0.419675 0.751623
  As 0.081532 0.583924 0.918581
  As 0.248635 0.419155 0.916436
  Sb 0.246963 0.583256 0.750167
  In 0.001875 0.666879 0.001284
  In -0.003732 0.828023 0.163335
  In 0.163214 0.668919 0.164553
  In 0.159818 0.837906 0.005585
  As 0.081291 0.749691 0.083097
  Sb 0.085272 0.913953 0.246444
  As 0.249080 0.746905 0.245441
  As 0.246465 0.916174 0.084698
  In -0.004136 0.665455 0.329533
  In 0.000338 0.830455 0.508491
  In 0.170274 0.664393 0.504543
  In 0.170282 0.825287 0.329294
  Sb 0.082765 0.746552 0.418368
  As 0.081213 0.914899 0.585154
  As 0.249886 0.751441 0.583418
  Sb 0.248524 0.915699 0.416209
  In -0.004802 0.665163 0.663629
  In -0.003855 0.837067 0.839134
  In 0.160072 0.664962 0.837916
  In 0.166460 0.833574 0.660468
  Sb 0.079031 0.752134 0.749286
  As 0.081048 0.917273 0.919193
  Sb 0.245383 0.751829 0.920407
  Sb 0.250326 0.916551 0.749939
  In 0.323946 -0.003328 0.000138
  In 0.334066 0.166388 0.173720
  In 0.502090 -0.005879 0.167713
  In 0.493557 0.170618 -0.004056
  Sb 0.414338 0.080282 0.083754
  As 0.418951 0.248347 0.250154
  As 0.580949 0.078729 0.248768
  Sb 0.582015 0.248759 0.085350
  In 0.333914 -0.002249 0.326262
  In 0.333178 0.164461 0.501000
  In 0.505423 -0.006126 0.504123
  In 0.501191 0.164235 0.327237
  Sb 0.419491 0.078764 0.416175
  Sb 0.418915 0.248654 0.586333
  As 0.583205 0.079811 0.587236
  Sb 0.584241 0.248390 0.416991
  In 0.341126 0.000008 0.667529
  In 0.334934 0.160200 0.836713
  In 0.498788 -0.000572 0.826907
  In 0.503295 0.160884 0.670498
  As 0.417560 0.083169 0.750445
  As 0.414240 0.249334 0.911955
  Sb 0.581858 0.082851 0.915123
  As 0.583635 0.245572 0.748403
  In 0.331449 0.332606 -0.008959
  In 0.332067 0.510441 0.164145
  In 0.498835 0.334612 0.172318
  In 0.502398 0.502031 0.001064
  Sb 0.413754 0.417385 0.082594
  As 0.414653 0.586306 0.249732
  As 0.580963 0.419478 0.249474
  Sb 0.586782 0.588282 0.087229
  In 0.336861 0.329491 0.328563
  In 0.327586 0.506447 0.494431
  In 0.499999 0.335777 0.499799
  In 0.498983 0.502896 0.325636
  Sb 0.415506 0.419525 0.413835
  Sb 0.415029 0.583987 0.586142
  Sb 0.585226 0.418919 0.586603
  Sb 0.587616 0.584449 0.412734
  In 0.336582 0.337118 0.670362
  In 0.332716 0.492978 0.832577
  In 0.498557 0.326589 0.828346
  In 0.499875 0.499942 0.676712
  As 0.418191 0.414496 0.753199
  Sb 0.415087 0.584365 0.914670
  Sb 0.583712 0.415815 0.913485
  As 0.584709 0.585044 0.750438
  In 0.328849 0.665223 0.004837
  In 0.328025 0.837017 0.169706
  In 0.500203 0.669901 0.176994
  In 0.502445 0.836087 0.004106
  Sb 0.415379 0.751519 0.087959
  As 0.416700 0.915390 0.247858
  As 0.585601 0.752333 0.251370
  As 0.583771 0.913318 0.086196
  In 0.328689 0.665697 0.328885
  In 0.333867 0.835600 0.507466
  In 0.500000 0.666432 0.498313
  In 0.502578 0.837247 0.329556
  Sb 0.414427 0.752382 0.414081
  As 0.419509 0.916724 0.585856
  Sb 0.584735 0.751673 0.582818
  As 0.583166 0.915415 0.415592
  In 0.331528 0.675039 0.667837
  In 0.335708 0.826990 0.831076
  In 0.499840 0.668369 0.825613
  In 0.498949 0.837221 0.669149
  As 0.418173 0.751848 0.747321
  Sb 0.415586 0.916350 0.916170
  Sb 0.584611 0.750881 0.915397
  As 0.581742 0.919414 0.747764
  In 0.662217 -0.005873 0.003241
  In 0.664929 0.159629 0.170440
  In 0.838705 -0.009680 0.164209
  In 0.837343 0.159685 -0.006106
  Sb 0.752075 0.078173 0.083380
  Sb 0.748810 0.253125 0.250170
  Sb 0.918872 0.081173 0.249591
  Sb 0.917539 0.247856 0.082158
  In 0.659819 -0.000797 0.333185
  In 0.665527 0.164685 0.510095
  In 0.833550 -0.001491 0.501098
  In 0.835735 0.170285 0.335876
  Sb 0.747675 0.083720 0.417770
  As 0.749750 0.247216 0.586783
  Sb 0.919851 0.082801 0.585769
  As 0.916306 0.250482 0.417046
  In 0.665446 0.001766 0.670004
  In 0.667652 0.164499 0.826456
  In 0.836263 0.002909 0.828821
  In 0.831421 0.168533 0.669454
  As 0.751213 0.083077 0.748301
  Sb 0.752303 0.248270 0.913093
  As 0.919229 0.078983 0.913919
  As 0.916348 0.247558 0.750170
  In 0.669470 0.333335 0.001098
  In 0.667898 0.502325 0.175821
  In 0.839175 0.338385 0.169770
  In 0.835338 0.510411 0.000777
  Sb 0.752612 0.421947 0.085311
  As 0.753370 0.586602 0.250387
  As 0.917337 0.422787 0.250554
  As 0.917672 0.588495 0.084230
  In 0.661912 0.340456 0.331780
  In 0.673964 0.505311 0.504704
  In 0.833255 0.325397 0.502819
  In 0.837431 0.506670 0.331631
  Sb 0.754204 0.417974 0.417066
  As 0.754258 0.588159 0.583169
  Sb 0.916842 0.418729 0.584814
  As 0.914899 0.588691 0.415740
  In 0.666508 0.326488 0.667778
  In 0.668470 0.509000 0.835000
  In 0.838674 0.332725 0.829206
  In 0.833973 0.508977 0.667322
  Sb 0.749627 0.419363 0.748944
  As 0.754342 0.587155 0.916489
  Sb 0.917963 0.422447 0.914771
  As 0.918242 0.586050 0.750388
  In 0.676517 0.668915 -0.001026
  In 0.664453 0.826833 0.161706
  In 0.833219 0.666699 0.165326
  In 0.837594 0.828203 0.002202
  As 0.753382 0.749523 0.083493
  Sb 0.747843 0.911179 0.250025
  As 0.915708 0.746666 0.246691
  As 0.919344 0.911946 0.080438
  In 0.672718 0.671812 0.328947
  In 0.668797 0.832285 0.490612
  In 0.832938 0.669780 0.498872
  In 0.835483 0.824163 0.331801
  As 0.752449 0.748623 0.414776
  Sb 0.749580 0.913512 0.585337
  As 0.916020 0.747780 0.583044
  Sb 0.918142 0.911851 0.417705
  In 0.668216 0.661365 0.665660
  In 0.663881 0.838214 0.827047
  In 0.840783 0.665813 0.838140
  In 0.842128 0.831620 0.667988
  Sb 0.753367 0.747748 0.751011
  Sb 0.752662 0.915763 0.915750
  As 0.920219 0.748765 0.920142
  As 0.918229 0.916592 0.752099
K_POINTS automatic
  2 2 2 0 0 0

HUBBARD (atomic)
U In-5p -1.0150000000000001
U Ga-4p -2.8
U As-4p 3.26
U Sb-5p 3.16
