&CONTROL
  calculation = 'scf',
  etot_conv_thr = 0.0001,
  forc_conv_thr = 0.00045,
  outdir = './tmp_In0.0Ga1.0As0.75Sb0.25_cube_3x3x3.3',
  prefix = 'In0.0Ga1.0As0.75Sb0.25_cube_3x3x3.3',
  pseudo_dir = '/work/i254/i254/gentles/data/pseudos/',
  restart_mode = 'from_scratch',
  verbosity = 'low',
/
&SYSTEM
  celldm(1) = 32.848022717636255,
  ecutwfc = 120,
  ibrav = 1,
  nat = 216,
  nbnd = 2160,
  ntyp = 4,
/
&ELECTRONS
  conv_thr = 1d-05,
  mixing_beta = 0.65,
/
&IONS
/
&CELL
  cell_dofree = 'all',
/
ATOMIC_SPECIES
  As  74.9216 As.pbe.NC-SR.standard.v0.5.UPF
  Ga  69.7230 Ga.pbe.NC-SR.standard.v0.5.UPF
  In  114.8180 In.pbe.NC-SR.standard.v0.5.UPF
  Sb  121.7600 Sb.pbe.NC-SR.standard.v0.5.UPF
ATOMIC_POSITIONS crystal
  Ga 0.000262 -0.000800 -0.000161
  Ga -0.000492 0.164140 0.167590
  Ga 0.164074 0.000017 0.165615
  Ga 0.158089 0.166704 0.002691
  As 0.080160 0.081625 0.084412
  As 0.081234 0.248770 0.248518
  As 0.246249 0.082657 0.248052
  As 0.244112 0.244498 0.081917
  Ga -0.001517 -0.005713 0.330100
  Ga -0.002029 0.168449 0.505060
  Ga 0.169572 -0.005008 0.506077
  Ga 0.169392 0.171351 0.328509
  Sb 0.084775 0.082127 0.417125
  As 0.083407 0.249377 0.584640
  As 0.250294 0.081685 0.585212
  As 0.248591 0.249716 0.419520
  Ga -0.000383 0.002772 0.666642
  Ga 0.001113 0.163973 0.832357
  Ga 0.161748 -0.004048 0.829793
  Ga 0.166484 0.164848 0.666052
  As 0.083223 0.083165 0.748560
  As 0.079832 0.247523 0.916695
  Sb 0.248235 0.081853 0.917103
  As 0.249116 0.247667 0.747680
  Ga 0.001431 0.334958 -0.001992
  Ga 0.004623 0.495459 0.169057
  Ga 0.161698 0.327750 0.161389
  Ga 0.161085 0.504996 0.002444
  As 0.083257 0.415927 0.081736
  As 0.080649 0.584501 0.248616
  Sb 0.245007 0.414857 0.251284
  As 0.245090 0.588437 0.081154
  Ga 0.000457 0.330048 0.334807
  Ga 0.000319 0.498978 0.501495
  Ga 0.164875 0.333008 0.501126
  Ga 0.155511 0.500456 0.334869
  As 0.079972 0.414624 0.418854
  As 0.079646 0.581836 0.586888
  As 0.248741 0.416362 0.583379
  Sb 0.249222 0.583252 0.418910
  Ga -0.003194 0.330038 0.664051
  Ga -0.002720 0.504129 0.836929
  Ga 0.165212 0.322849 0.832981
  Ga 0.170026 0.503826 0.663752
  Sb 0.082956 0.416318 0.750233
  As 0.083300 0.587079 0.915410
  Sb 0.248413 0.416257 0.916086
  As 0.249739 0.585589 0.748923
  Ga 0.005333 0.673397 -0.004103
  Ga 0.002203 0.833485 0.165487
  Ga 0.164463 0.668662 0.167169
  Ga 0.166031 0.835116 -0.001785
  As 0.085225 0.752493 0.082899
  As 0.083337 0.916722 0.246959
  As 0.247085 0.753106 0.247613
  As 0.247207 0.916871 0.082386
  Ga -0.005232 0.665401 0.328255
  Ga -0.003490 0.838171 0.504080
  Ga 0.159528 0.663562 0.506456
  Ga 0.169536 0.839561 0.328508
  Sb 0.081498 0.752848 0.414507
  As 0.081211 0.918117 0.587031
  Sb 0.250402 0.752052 0.585671
  As 0.248957 0.918043 0.417074
  Ga 0.000584 0.668311 0.668512
  Ga -0.001222 0.833707 0.833252
  Ga 0.166768 0.667751 0.832119
  Ga 0.161323 0.836880 0.672024
  As 0.081925 0.750639 0.752074
  As 0.081114 0.915595 0.915911
  As 0.248399 0.751785 0.915100
  As 0.247982 0.916519 0.750127
  Ga 0.336463 -0.005729 0.003316
  Ga 0.326139 0.160309 0.161041
  Ga 0.499018 0.007035 0.166380
  Ga 0.499800 0.165395 -0.003113
  As 0.416220 0.083938 0.080711
  Sb 0.413919 0.244862 0.250544
  As 0.584043 0.079711 0.252891
  As 0.583390 0.245801 0.080200
  Ga 0.325793 0.004865 0.337310
  Ga 0.330960 0.166105 0.501930
  Ga 0.496594 -0.005991 0.497041
  Ga 0.498461 0.154702 0.336699
  As 0.412207 0.080325 0.420280
  As 0.410651 0.250834 0.585346
  Sb 0.585045 0.080976 0.582060
  Sb 0.582320 0.247336 0.420941
  Ga 0.331356 -0.001595 0.667354
  Ga 0.334113 0.167899 0.828010
  Ga 0.494240 0.004298 0.835532
  Ga 0.490614 0.164207 0.665227
  As 0.412397 0.081483 0.749052
  As 0.415330 0.246351 0.914267
  As 0.582499 0.083079 0.914930
  Sb 0.582323 0.248545 0.748865
  Ga 0.329807 0.321328 -0.000992
  Ga 0.325348 0.505971 0.162933
  Ga 0.503000 0.328372 0.161948
  Ga 0.493234 0.507731 -0.006967
  Sb 0.412758 0.415884 0.080378
  Sb 0.415329 0.588692 0.251729
  Sb 0.583292 0.418366 0.250028
  Sb 0.585352 0.588257 0.080489
  Ga 0.333769 0.333947 0.343899
  Ga 0.336871 0.497293 0.506720
  Ga 0.495886 0.335582 0.507682
  Ga 0.498702 0.501877 0.343525
  As 0.417328 0.416834 0.423416
  As 0.418700 0.582432 0.587213
  As 0.582235 0.419108 0.584240
  As 0.580978 0.586618 0.422116
  Ga 0.328609 0.333980 0.667140
  Ga 0.334367 0.504336 0.827908
  Ga 0.491308 0.334780 0.832890
  Ga 0.500599 0.499032 0.668919
  As 0.413286 0.417664 0.747578
  As 0.413289 0.589277 0.910736
  Sb 0.585201 0.417752 0.916315
  As 0.580937 0.586136 0.748048
  Ga 0.330029 0.667958 -0.002953
  Ga 0.327329 0.830320 0.160576
  Ga 0.501678 0.678030 0.167063
  Ga 0.494372 0.828221 -0.005080
  As 0.412621 0.749585 0.080026
  Sb 0.413509 0.916571 0.251238
  As 0.586742 0.752648 0.252832
  Sb 0.582784 0.914760 0.081725
  Ga 0.330650 0.679318 0.334967
  Ga 0.336035 0.838167 0.495595
  Ga 0.496955 0.667675 0.502042
  Ga 0.505857 0.831795 0.337245
  As 0.418714 0.753292 0.418209
  As 0.414535 0.916376 0.583051
  As 0.581658 0.750425 0.580949
  As 0.586116 0.915827 0.417646
  Ga 0.337792 0.664296 0.671598
  Ga 0.331178 0.834117 0.832013
  Ga 0.500864 0.670161 0.831461
  Ga 0.495379 0.829653 0.662162
  As 0.416528 0.751274 0.750960
  As 0.414691 0.915164 0.915119
  As 0.583240 0.749159 0.916941
  Sb 0.581845 0.916481 0.750755
  Ga 0.668097 -0.001773 -0.009914
  Ga 0.659585 0.163846 0.167230
  Ga 0.838184 -0.005566 0.170565
  Ga 0.841772 0.169154 -0.002877
  Sb 0.752452 0.081503 0.082026
  Sb 0.755548 0.247137 0.248123
  As 0.919149 0.079592 0.250240
  As 0.922967 0.250626 0.081597
  Ga 0.669050 -0.002099 0.333944
  Ga 0.678813 0.165140 0.500180
  Ga 0.834862 -0.000088 0.499583
  Ga 0.840564 0.159597 0.337149
  As 0.753916 0.079981 0.415838
  As 0.755933 0.247622 0.584952
  As 0.915144 0.083624 0.584812
  As 0.918850 0.247687 0.418545
  Ga 0.676673 -0.001426 0.668396
  Ga 0.671363 0.162069 0.836093
  Ga 0.837277 -0.001305 0.832697
  Ga 0.834631 0.165027 0.670160
  As 0.754596 0.081736 0.752734
  As 0.754841 0.246795 0.916574
  As 0.919797 0.081579 0.915516
  As 0.918583 0.246633 0.750217
  Ga 0.672500 0.325908 0.002237
  Ga 0.673796 0.496658 0.160547
  Ga 0.842309 0.335880 0.161937
  Ga 0.829462 0.495654 -0.005931
  As 0.754226 0.412235 0.080299
  Sb 0.753591 0.586516 0.251208
  As 0.922269 0.414509 0.251016
  Sb 0.918084 0.583277 0.080800
  Ga 0.669089 0.332535 0.334562
  Ga 0.663565 0.506224 0.505378
  Ga 0.839266 0.329094 0.504576
  Ga 0.845022 0.500312 0.334620
  Sb 0.753073 0.418944 0.421464
  As 0.751114 0.586440 0.583311
  As 0.918642 0.416564 0.582728
  As 0.919811 0.584857 0.419090
  Ga 0.667739 0.333034 0.657355
  Ga 0.667711 0.510751 0.830565
  Ga 0.838918 0.328656 0.834947
  Ga 0.839653 0.505288 0.662167
  Sb 0.753455 0.418178 0.747684
  As 0.752924 0.586067 0.915109
  As 0.917011 0.415840 0.916022
  As 0.919597 0.585194 0.749992
  Ga 0.673730 0.673199 -0.004385
  Ga 0.672422 0.832110 0.171270
  Ga 0.835048 0.678182 0.164166
  Ga 0.836120 0.836686 0.000087
  As 0.752406 0.756056 0.081047
  As 0.753425 0.915094 0.253480
  As 0.916889 0.754749 0.249518
  As 0.919740 0.915962 0.083683
  Ga 0.662838 0.669316 0.339653
  Ga 0.668112 0.834382 0.502027
  Ga 0.833651 0.668270 0.500022
  Ga 0.833904 0.832937 0.336635
  As 0.749937 0.751075 0.419082
  As 0.754251 0.916641 0.582213
  As 0.917955 0.750033 0.583668
  As 0.915773 0.916853 0.417630
  Ga 0.662588 0.665610 0.662320
  Ga 0.666804 0.833368 0.841359
  Ga 0.840182 0.664418 0.836076
  Ga 0.839049 0.836972 0.663411
  Sb 0.751255 0.749975 0.750049
  As 0.754577 0.916617 0.914766
  As 0.917937 0.752783 0.916956
  As 0.919723 0.918070 0.748895
K_POINTS automatic
  2 2 2 0 0 0

HUBBARD (atomic)
U In-5p -0.9725
U Ga-4p -3.2649999999999997
U As-4p 5.84
U Sb-5p 4.89
