&CONTROL
  calculation = 'scf',
  etot_conv_thr = 0.0001,
  forc_conv_thr = 0.00045,
  outdir = './tmp_In0.0Ga1.0As0.75Sb0.25_cube_3x3x3.8',
  prefix = 'In0.0Ga1.0As0.75Sb0.25_cube_3x3x3.8',
  pseudo_dir = '/work/i254/i254/gentles/data/pseudos/',
  restart_mode = 'from_scratch',
  verbosity = 'low',
/
&SYSTEM
  celldm(1) = 32.84841499621763,
  ecutwfc = 120,
  ibrav = 1,
  nat = 216,
  nbnd = 2160,
  ntyp = 4,
/
&ELECTRONS
  conv_thr = 1d-05,
  mixing_beta = 0.65,
/
&IONS
/
&CELL
  cell_dofree = 'all',
/
ATOMIC_SPECIES
  As  74.9216 As.pbe.NC-SR.standard.v0.5.UPF
  Ga  69.7230 Ga.pbe.NC-SR.standard.v0.5.UPF
  In  114.8180 In.pbe.NC-SR.standard.v0.5.UPF
  Sb  121.7600 Sb.pbe.NC-SR.standard.v0.5.UPF
ATOMIC_POSITIONS crystal
  Ga -0.006401 -0.006947 -0.003414
  Ga -0.002970 0.176979 0.167240
  Ga 0.164156 0.001988 0.174151
  Ga 0.161812 0.172210 -0.005926
  Sb 0.078216 0.084104 0.082357
  As 0.082645 0.252790 0.250078
  As 0.249139 0.083368 0.252197
  Sb 0.249580 0.252461 0.084890
  Ga -0.002174 -0.009545 0.333757
  Ga -0.001420 0.166938 0.510162
  Ga 0.172023 -0.004545 0.506205
  Ga 0.168485 0.169652 0.330487
  Sb 0.083773 0.081119 0.419187
  As 0.082832 0.251026 0.585691
  As 0.249745 0.084157 0.587134
  As 0.247666 0.248912 0.416757
  Ga -0.002529 -0.000706 0.666020
  Ga -0.001922 0.168648 0.831965
  Ga 0.153751 -0.001683 0.832145
  Ga 0.164161 0.166003 0.668418
  As 0.077521 0.084162 0.748355
  As 0.079009 0.253725 0.913763
  Sb 0.247492 0.082458 0.911520
  As 0.246621 0.248987 0.749287
  Ga -0.003913 0.336237 -0.002654
  Ga -0.004875 0.501780 0.164788
  Ga 0.155481 0.337110 0.163883
  Ga 0.163454 0.499511 -0.000696
  As 0.076523 0.419743 0.080399
  As 0.077289 0.583617 0.247918
  Sb 0.248789 0.418805 0.248109
  As 0.247824 0.581308 0.080810
  Ga 0.000619 0.336544 0.328557
  Ga -0.007390 0.495938 0.497171
  Ga 0.159571 0.330065 0.493473
  Ga 0.156825 0.501356 0.332910
  As 0.077702 0.416556 0.414847
  Sb 0.078171 0.582892 0.584082
  Sb 0.247374 0.413221 0.583055
  Sb 0.250807 0.584748 0.415461
  Ga -0.001262 0.333514 0.667202
  Ga -0.001653 0.501586 0.834778
  Ga 0.165317 0.333557 0.833733
  Ga 0.160265 0.494585 0.673034
  As 0.078514 0.414604 0.754215
  As 0.081677 0.583827 0.916977
  As 0.246611 0.417295 0.918330
  Sb 0.249939 0.584811 0.752892
  Ga -0.002325 0.664426 -0.001667
  Ga 0.000660 0.832014 0.166416
  Ga 0.161135 0.661516 0.161810
  Ga 0.160865 0.828104 -0.002778
  As 0.079226 0.746700 0.081292
  As 0.082417 0.914030 0.250790
  Sb 0.248009 0.747612 0.251476
  Sb 0.247890 0.916143 0.083074
  Ga -0.003429 0.667070 0.331732
  Ga -0.004433 0.833108 0.501809
  Ga 0.160459 0.672472 0.495189
  Ga 0.160987 0.835195 0.338950
  As 0.075568 0.752431 0.416080
  As 0.079752 0.916375 0.583267
  Sb 0.250954 0.752188 0.583080
  As 0.250059 0.915691 0.417314
  Ga -0.007516 0.668905 0.672128
  Ga -0.004760 0.832573 0.834456
  Ga 0.160118 0.671649 0.836177
  Ga 0.155845 0.832263 0.668038
  As 0.076228 0.750654 0.752661
  As 0.077719 0.912212 0.916317
  As 0.247688 0.749224 0.916364
  Sb 0.249804 0.916288 0.749888
  Ga 0.337942 -0.005124 -0.007067
  Ga 0.334784 0.164906 0.174401
  Ga 0.502827 -0.011161 0.169046
  Ga 0.509871 0.168469 -0.000134
  Sb 0.421038 0.080667 0.083914
  As 0.417931 0.251455 0.250968
  Sb 0.588496 0.083315 0.250458
  As 0.585636 0.254568 0.083940
  Ga 0.328920 -0.002985 0.331104
  Ga 0.328173 0.169463 0.504878
  Ga 0.504032 -0.009264 0.499568
  Ga 0.503336 0.175456 0.334836
  Sb 0.416227 0.083408 0.417815
  As 0.417100 0.248944 0.584252
  Sb 0.585590 0.084158 0.584738
  As 0.588457 0.253518 0.417788
  Ga 0.339407 0.003296 0.662517
  Ga 0.333410 0.166177 0.823528
  Ga 0.500214 -0.001076 0.832471
  Ga 0.497884 0.171096 0.669864
  As 0.419848 0.083062 0.748171
  Sb 0.419113 0.252666 0.914716
  As 0.583663 0.082048 0.914566
  As 0.587193 0.250191 0.748755
  Ga 0.334577 0.343518 0.001305
  Ga 0.338698 0.506093 0.162737
  Ga 0.499185 0.334486 0.166679
  Ga 0.502243 0.503252 -0.000726
  As 0.420712 0.421604 0.082890
  As 0.423594 0.584007 0.247666
  As 0.584652 0.416234 0.247275
  As 0.586864 0.582180 0.081339
  Ga 0.332686 0.327710 0.334938
  Ga 0.338402 0.505049 0.507374
  Ga 0.507386 0.330474 0.506567
  Ga 0.507247 0.503201 0.328744
  Sb 0.421691 0.416687 0.418225
  As 0.423669 0.586707 0.584373
  As 0.588846 0.417472 0.584511
  As 0.584600 0.585185 0.417389
  Ga 0.333154 0.325298 0.667328
  Ga 0.333825 0.499515 0.842727
  Ga 0.513955 0.335837 0.833641
  Ga 0.508030 0.504592 0.663331
  Sb 0.420051 0.417516 0.749750
  As 0.417620 0.583993 0.918286
  As 0.587694 0.422046 0.918011
  As 0.587408 0.584406 0.750509
  Ga 0.327715 0.663106 -0.003718
  Ga 0.338176 0.835126 0.170407
  Ga 0.509131 0.662970 0.168259
  Ga 0.508598 0.835003 -0.005736
  Sb 0.420655 0.747985 0.080659
  As 0.417573 0.914758 0.254097
  As 0.585621 0.750276 0.250394
  As 0.587389 0.913945 0.083274
  Ga 0.345260 0.666368 0.332339
  Ga 0.338729 0.836344 0.494824
  Ga 0.502714 0.667763 0.500136
  Ga 0.502415 0.831982 0.332524
  As 0.422483 0.750656 0.416569
  As 0.419317 0.914643 0.582443
  As 0.584171 0.748393 0.584701
  As 0.586032 0.911216 0.415382
  Ga 0.343422 0.667417 0.667913
  Ga 0.337332 0.827514 0.836332
  Ga 0.502303 0.664566 0.833847
  Ga 0.501473 0.832962 0.666781
  As 0.422063 0.749292 0.752143
  As 0.421349 0.913232 0.913393
  As 0.586368 0.746320 0.914972
  As 0.582526 0.914747 0.751166
  Ga 0.664114 0.004130 0.002558
  Ga 0.672726 0.173002 0.162184
  Ga 0.827826 -0.006790 0.161657
  Ga 0.838794 0.162428 0.002673
  As 0.750899 0.083771 0.082168
  As 0.749274 0.254894 0.248747
  Sb 0.912781 0.081730 0.248240
  As 0.915094 0.254087 0.082300
  Ga 0.672425 -0.005806 0.338442
  Ga 0.672160 0.170220 0.497080
  Ga 0.838046 0.004811 0.496848
  Ga 0.823329 0.167295 0.332339
  As 0.750531 0.082699 0.417559
  As 0.750077 0.251392 0.584800
  As 0.914902 0.083495 0.586556
  Sb 0.913476 0.252062 0.418615
  Ga 0.668640 -0.001149 0.675978
  Ga 0.665276 0.162399 0.829386
  Ga 0.837879 0.004438 0.829343
  Ga 0.831857 0.167902 0.666584
  As 0.752413 0.084404 0.750249
  Sb 0.751081 0.250550 0.916444
  As 0.918863 0.083182 0.915257
  As 0.915855 0.250766 0.748207
  Ga 0.665725 0.339848 0.003358
  Ga 0.665353 0.495819 0.161294
  Ga 0.833185 0.335807 0.166149
  Ga 0.832504 0.500949 -0.000698
  As 0.752131 0.417839 0.082742
  Sb 0.749939 0.582962 0.249827
  As 0.916295 0.417454 0.248104
  As 0.915046 0.583943 0.080928
  Ga 0.667361 0.336848 0.332671
  Ga 0.667821 0.501472 0.498888
  Ga 0.827769 0.338942 0.506329
  Ga 0.836453 0.496403 0.336708
  As 0.749343 0.418238 0.417720
  As 0.750314 0.583493 0.582730
  As 0.913991 0.417718 0.586259
  As 0.915340 0.583417 0.416230
  Ga 0.669378 0.333991 0.667848
  Ga 0.669570 0.501745 0.833468
  Ga 0.837044 0.338728 0.828457
  Ga 0.832649 0.502180 0.667327
  As 0.750904 0.419054 0.749170
  As 0.750376 0.583336 0.917387
  As 0.915292 0.419776 0.915609
  As 0.913350 0.583219 0.752827
  Ga 0.668689 0.665527 -0.000157
  Ga 0.668604 0.830597 0.166713
  Ga 0.836786 0.669734 0.162810
  Ga 0.835980 0.826378 0.002437
  As 0.750183 0.748171 0.083157
  As 0.750284 0.912499 0.250270
  As 0.916747 0.750914 0.248994
  As 0.914942 0.911454 0.083076
  Ga 0.665216 0.670736 0.337836
  Ga 0.664706 0.827336 0.498012
  Ga 0.833051 0.665837 0.500524
  Ga 0.832877 0.831177 0.333078
  As 0.751488 0.748943 0.417545
  Sb 0.751538 0.915856 0.583209
  As 0.914949 0.748842 0.584652
  As 0.914028 0.913797 0.417251
  Ga 0.668917 0.666359 0.666318
  Ga 0.664299 0.827141 0.828628
  Ga 0.831527 0.665185 0.835118
  Ga 0.836657 0.829119 0.670769
  As 0.751211 0.746981 0.749701
  Sb 0.750729 0.915976 0.915654
  As 0.915335 0.746730 0.916223
  As 0.917321 0.916406 0.750007
K_POINTS automatic
  2 2 2 0 0 0

HUBBARD (atomic)
U In-5p -0.9725
U Ga-4p -3.2649999999999997
U As-4p 5.84
U Sb-5p 4.89
