&CONTROL
  calculation = 'scf',
  etot_conv_thr = 0.0001,
  forc_conv_thr = 0.00045,
  outdir = './tmp_In0.0Ga1.0As0.75Sb0.25_cube_3x3x3.6',
  prefix = 'In0.0Ga1.0As0.75Sb0.25_cube_3x3x3.6',
  pseudo_dir = '/work/i254/i254/gentles/data/pseudos/',
  restart_mode = 'from_scratch',
  verbosity = 'low',
/
&SYSTEM
  celldm(1) = 32.84704534225013,
  ecutwfc = 120,
  ibrav = 1,
  nat = 216,
  nbnd = 2160,
  ntyp = 4,
/
&ELECTRONS
  conv_thr = 1d-05,
  mixing_beta = 0.65,
/
&IONS
/
&CELL
  cell_dofree = 'all',
/
ATOMIC_SPECIES
  As  74.9216 As.pbe.NC-SR.standard.v0.5.UPF
  Ga  69.7230 Ga.pbe.NC-SR.standard.v0.5.UPF
  In  114.8180 In.pbe.NC-SR.standard.v0.5.UPF
  Sb  121.7600 Sb.pbe.NC-SR.standard.v0.5.UPF
ATOMIC_POSITIONS crystal
  Ga -0.006645 0.003304 0.004413
  Ga -0.007752 0.162215 0.161492
  Ga 0.159520 0.002594 0.171562
  Ga 0.165073 0.165804 -0.000140
  As 0.080545 0.083519 0.083301
  Sb 0.078987 0.247935 0.247771
  As 0.247262 0.081988 0.249898
  As 0.251046 0.247155 0.078579
  Ga -0.002410 -0.001134 0.331872
  Ga 0.001416 0.164747 0.499190
  Ga 0.160648 -0.004930 0.497268
  Ga 0.164534 0.158634 0.334096
  As 0.080052 0.079062 0.415987
  As 0.082721 0.246263 0.584346
  Sb 0.249621 0.082504 0.584356
  Sb 0.250374 0.248481 0.419518
  Ga -0.001814 0.002065 0.665491
  Ga 0.002551 0.160489 0.839861
  Ga 0.172933 0.005449 0.830573
  Ga 0.163055 0.169607 0.672288
  As 0.082937 0.082808 0.751258
  As 0.082723 0.247914 0.919361
  As 0.250962 0.088709 0.915042
  As 0.252033 0.249649 0.751399
  Ga -0.002083 0.331509 0.000271
  Ga 0.004315 0.493892 0.170366
  Ga 0.166536 0.330232 0.156187
  Ga 0.167416 0.499547 -0.001229
  As 0.083227 0.415629 0.079673
  As 0.080374 0.585846 0.249823
  Sb 0.250277 0.418309 0.245414
  As 0.247283 0.583832 0.082474
  Ga -0.010434 0.332636 0.334809
  Ga -0.002974 0.510681 0.499537
  Ga 0.165212 0.332173 0.510133
  Ga 0.165885 0.509087 0.331027
  Sb 0.081666 0.418670 0.417951
  As 0.084150 0.586614 0.581266
  As 0.250303 0.415299 0.585661
  As 0.248460 0.584078 0.417103
  Ga 0.003428 0.328747 0.664840
  Ga -0.002342 0.498494 0.843082
  Ga 0.171659 0.327391 0.839500
  Ga 0.170748 0.504949 0.661682
  Sb 0.087425 0.416890 0.752699
  As 0.084414 0.581389 0.917687
  As 0.250704 0.413991 0.918714
  As 0.249197 0.581862 0.750232
  Ga 0.008317 0.666463 0.001392
  Ga -0.001790 0.834605 0.167434
  Ga 0.164965 0.665805 0.168160
  Ga 0.159963 0.830568 0.003901
  As 0.082257 0.749658 0.088273
  As 0.080141 0.916669 0.251004
  As 0.246170 0.749246 0.250733
  Sb 0.249018 0.918648 0.084859
  Ga -0.001804 0.671032 0.331328
  Ga -0.002053 0.834010 0.499248
  Ga 0.162684 0.666138 0.495209
  Ga 0.165052 0.834599 0.331801
  As 0.081515 0.752267 0.414492
  As 0.078480 0.917163 0.583594
  Sb 0.250276 0.752936 0.583357
  As 0.247325 0.917766 0.415247
  Ga 0.004031 0.671512 0.661054
  Ga -0.001625 0.834692 0.823864
  Ga 0.161021 0.660573 0.828418
  Ga 0.162409 0.839918 0.669107
  As 0.083210 0.750924 0.747066
  Sb 0.080878 0.920316 0.914634
  Sb 0.247766 0.747098 0.915776
  As 0.250394 0.918531 0.749556
  Ga 0.333908 0.009560 -0.001075
  Ga 0.328268 0.162348 0.163303
  Ga 0.504823 0.005106 0.160950
  Ga 0.501274 0.167545 -0.002169
  As 0.418403 0.087133 0.081601
  Sb 0.418997 0.246079 0.248702
  As 0.587872 0.084493 0.246750
  As 0.585531 0.247683 0.078948
  Ga 0.328865 0.004225 0.337111
  Ga 0.344393 0.167177 0.502318
  Ga 0.498360 0.003482 0.506259
  Ga 0.506042 0.159501 0.336594
  As 0.419005 0.081839 0.418353
  As 0.420508 0.251826 0.586509
  As 0.582369 0.085724 0.586201
  As 0.583598 0.246107 0.419017
  Ga 0.337265 -0.002164 0.671376
  Ga 0.335857 0.167615 0.832217
  Ga 0.506587 0.007276 0.831223
  Ga 0.501221 0.168793 0.668868
  As 0.419232 0.085042 0.750428
  As 0.418216 0.249188 0.915365
  As 0.586221 0.086381 0.917038
  As 0.583909 0.249208 0.752460
  Ga 0.335355 0.331251 -0.002817
  Ga 0.335236 0.500364 0.154919
  Ga 0.500509 0.330756 0.154677
  Ga 0.507127 0.494866 0.001049
  As 0.418078 0.414779 0.076816
  Sb 0.416218 0.585822 0.249064
  Sb 0.584778 0.414508 0.245652
  As 0.587492 0.583356 0.081268
  Ga 0.337770 0.336493 0.336235
  Ga 0.327694 0.494573 0.497540
  Ga 0.502607 0.332375 0.502835
  Ga 0.496414 0.494251 0.337447
  As 0.417394 0.414288 0.421824
  Sb 0.415019 0.579374 0.585895
  As 0.585381 0.413037 0.587998
  Sb 0.584778 0.585349 0.417017
  Ga 0.334593 0.332760 0.667853
  Ga 0.329202 0.493778 0.830267
  Ga 0.500517 0.331660 0.834684
  Ga 0.504525 0.494032 0.672731
  As 0.417138 0.413124 0.751711
  Sb 0.419119 0.581521 0.915137
  As 0.584944 0.412761 0.916962
  As 0.585072 0.581923 0.752372
  Ga 0.334975 0.665670 0.007019
  Ga 0.333837 0.825400 0.167341
  Ga 0.508667 0.668720 0.163551
  Ga 0.504892 0.830846 0.003600
  As 0.420922 0.748195 0.085059
  Sb 0.417669 0.918398 0.249482
  As 0.588539 0.750761 0.247276
  As 0.586321 0.918682 0.082106
  Ga 0.326898 0.671338 0.337159
  Ga 0.336702 0.841322 0.496520
  Ga 0.492287 0.672285 0.496770
  Ga 0.502239 0.825825 0.331316
  As 0.412894 0.754013 0.414426
  As 0.417250 0.919430 0.585259
  Sb 0.583977 0.750990 0.585307
  Sb 0.585049 0.918314 0.415699
  Ga 0.334342 0.667505 0.676513
  Ga 0.332532 0.833901 0.827424
  Ga 0.505773 0.672225 0.830578
  Ga 0.498166 0.839898 0.670392
  As 0.419461 0.752923 0.750707
  Sb 0.419485 0.919022 0.915797
  As 0.587173 0.751502 0.917052
  As 0.583468 0.919465 0.752253
  Ga 0.667562 0.001908 -0.001443
  Ga 0.668466 0.166937 0.163812
  Ga 0.832013 0.000135 0.167082
  Ga 0.830903 0.167599 -0.001119
  As 0.750265 0.083162 0.082208
  As 0.752347 0.246993 0.247149
  As 0.914319 0.080808 0.248863
  As 0.913157 0.249698 0.081646
  Ga 0.672446 0.004049 0.327591
  Ga 0.666004 0.164458 0.501058
  Ga 0.838782 0.005035 0.494444
  Ga 0.833726 0.164564 0.330856
  As 0.751050 0.085375 0.414874
  As 0.747119 0.245101 0.584794
  As 0.917646 0.084554 0.581386
  As 0.915773 0.243461 0.416156
  Ga 0.662439 0.003444 0.671003
  Ga 0.668220 0.168302 0.834638
  Ga 0.832804 0.000191 0.833855
  Ga 0.827978 0.159640 0.663552
  As 0.748119 0.082339 0.752264
  As 0.749214 0.250587 0.917392
  As 0.913390 0.083080 0.919094
  Sb 0.914245 0.245714 0.752059
  Ga 0.667052 0.331152 -0.000580
  Ga 0.673536 0.504944 0.162546
  Ga 0.832008 0.333469 0.165203
  Ga 0.828865 0.495244 -0.002612
  As 0.749037 0.414738 0.081985
  As 0.754042 0.586872 0.246745
  As 0.914705 0.415996 0.248762
  Sb 0.916581 0.581856 0.084645
  Ga 0.666673 0.322320 0.331517
  Ga 0.666922 0.500049 0.510438
  Ga 0.832378 0.320520 0.499636
  Ga 0.837263 0.505205 0.328438
  Sb 0.750470 0.415230 0.415935
  As 0.751336 0.584671 0.585812
  Sb 0.914169 0.415373 0.582077
  As 0.916074 0.588882 0.413855
  Ga 0.666702 0.329534 0.669271
  Ga 0.663607 0.498411 0.835817
  Ga 0.828536 0.336083 0.836774
  Ga 0.824672 0.497373 0.669549
  As 0.744723 0.415447 0.752980
  As 0.746097 0.580194 0.917875
  As 0.913939 0.413878 0.919164
  Sb 0.915833 0.585065 0.750850
  Ga 0.667838 0.666950 -0.000690
  Ga 0.667354 0.837141 0.166760
  Ga 0.831327 0.674826 0.168061
  Ga 0.828961 0.839870 0.005218
  As 0.747387 0.753393 0.083676
  As 0.751972 0.917001 0.249182
  As 0.916016 0.754193 0.249970
  As 0.914747 0.918493 0.086682
  Ga 0.673364 0.669564 0.327727
  Ga 0.674659 0.829434 0.495006
  Ga 0.833527 0.667036 0.499276
  Ga 0.835128 0.835782 0.332979
  As 0.755287 0.748985 0.412916
  Sb 0.753629 0.919421 0.584204
  As 0.916600 0.750194 0.581512
  As 0.917310 0.917468 0.415217
  Ga 0.670160 0.662832 0.671684
  Ga 0.667185 0.836410 0.834233
  Ga 0.823277 0.666629 0.836718
  Ga 0.837110 0.829852 0.670728
  As 0.748184 0.751419 0.752396
  As 0.749644 0.919311 0.916740
  Sb 0.915418 0.752250 0.918649
  As 0.915685 0.919397 0.747976
K_POINTS automatic
  2 2 2 0 0 0

HUBBARD (atomic)
U In-5p -0.9725
U Ga-4p -3.2649999999999997
U As-4p 5.84
U Sb-5p 4.89
