&CONTROL
  calculation = 'scf',
  etot_conv_thr = 0.0001,
  forc_conv_thr = 0.00045,
  outdir = './tmp_In0.0Ga1.0As0.5Sb0.5_cube_3x3x3.7',
  prefix = 'In0.0Ga1.0As0.5Sb0.5_cube_3x3x3.7',
  pseudo_dir = '/work/i254/i254/gentles/data/pseudos/',
  restart_mode = 'from_scratch',
  verbosity = 'low',
/
&SYSTEM
  celldm(1) = 33.4443892520988,
  ecutwfc = 120,
  ibrav = 1,
  nat = 216,
  nbnd = 2160,
  ntyp = 4,
/
&ELECTRONS
  conv_thr = 1d-05,
  mixing_beta = 0.65,
/
&IONS
/
&CELL
  cell_dofree = 'all',
/
ATOMIC_SPECIES
  As  74.9216 As.pbe.NC-SR.standard.v0.5.UPF
  Ga  69.7230 Ga.pbe.NC-SR.standard.v0.5.UPF
  In  114.8180 In.pbe.NC-SR.standard.v0.5.UPF
  Sb  121.7600 Sb.pbe.NC-SR.standard.v0.5.UPF
ATOMIC_POSITIONS crystal
  Ga -0.005363 0.004716 -0.001452
  Ga 0.000836 0.167450 0.167288
  Ga 0.171240 0.002464 0.172896
  Ga 0.172804 0.173913 -0.002493
  Sb 0.087827 0.085297 0.082083
  Sb 0.089011 0.251740 0.250494
  As 0.255198 0.083667 0.248499
  As 0.254258 0.250352 0.082333
  Ga -0.006653 -0.006586 0.339601
  Ga 0.002908 0.171048 0.500860
  Ga 0.172691 0.003649 0.502908
  Ga 0.176796 0.164293 0.330879
  Sb 0.085362 0.083406 0.415348
  As 0.083895 0.250834 0.579791
  As 0.251950 0.087071 0.581007
  As 0.249706 0.248060 0.414564
  Ga -0.001011 -0.001394 0.667665
  Ga -0.001057 0.168198 0.841756
  Ga 0.175770 0.005715 0.839713
  Ga 0.167429 0.168924 0.657638
  Sb 0.085329 0.085665 0.751654
  As 0.083029 0.249204 0.919015
  As 0.255593 0.088609 0.920292
  Sb 0.252512 0.246733 0.752275
  Ga 0.000095 0.334058 -0.007131
  Ga -0.005619 0.504495 0.163763
  Ga 0.176511 0.334416 0.165061
  Ga 0.175312 0.505037 0.007503
  Sb 0.084164 0.417534 0.083151
  Sb 0.086167 0.585106 0.248772
  As 0.251753 0.417603 0.248970
  As 0.256996 0.585010 0.085837
  Ga 0.004924 0.339374 0.335971
  Ga -0.000799 0.490852 0.498466
  Ga 0.163428 0.327217 0.493926
  Ga 0.169286 0.495863 0.335205
  As 0.086223 0.415194 0.417100
  Sb 0.082384 0.583918 0.578586
  Sb 0.247240 0.416738 0.578803
  As 0.247558 0.584613 0.411366
  Ga -0.000963 0.331636 0.657518
  Ga -0.005767 0.497169 0.838609
  Ga 0.162867 0.328277 0.837843
  Ga 0.166842 0.502734 0.668893
  Sb 0.080225 0.415002 0.750069
  Sb 0.083590 0.582219 0.922234
  Sb 0.253665 0.414756 0.920934
  Sb 0.254513 0.587179 0.752731
  Ga 0.000025 0.665569 0.010589
  Ga 0.000051 0.824854 0.166100
  Ga 0.174837 0.669514 0.163024
  Ga 0.167159 0.825348 0.002878
  As 0.085612 0.746465 0.085835
  Sb 0.082333 0.912849 0.251907
  As 0.253364 0.747958 0.247893
  Sb 0.252995 0.915524 0.085362
  Ga 0.000030 0.673585 0.331813
  Ga -0.004604 0.830231 0.494234
  Ga 0.168816 0.669181 0.492723
  Ga 0.168376 0.824168 0.332571
  As 0.082578 0.750096 0.415200
  Sb 0.082804 0.915006 0.579359
  As 0.249893 0.747822 0.580548
  Sb 0.252463 0.916340 0.413718
  Ga -0.006580 0.670426 0.659125
  Ga 0.000439 0.833850 0.833490
  Ga 0.169774 0.669826 0.840471
  Ga 0.171012 0.829647 0.660628
  Sb 0.084230 0.748372 0.748035
  Sb 0.085671 0.918406 0.919135
  As 0.252189 0.747021 0.921707
  Sb 0.254317 0.917038 0.749723
  Ga 0.336014 0.007770 0.001620
  Ga 0.330578 0.163616 0.161604
  Ga 0.496420 0.003501 0.168604
  Ga 0.495853 0.170481 0.007498
  As 0.416379 0.085182 0.085404
  Sb 0.417554 0.250238 0.246088
  As 0.583223 0.083186 0.246471
  As 0.582525 0.251371 0.083283
  Ga 0.338115 0.002109 0.326772
  Ga 0.330858 0.163797 0.493002
  Ga 0.495155 0.006156 0.494854
  Ga 0.501003 0.159553 0.330823
  As 0.414620 0.083532 0.411311
  Sb 0.416800 0.245261 0.584069
  Sb 0.584696 0.083128 0.585505
  Sb 0.586513 0.248232 0.414372
  Ga 0.335009 0.012756 0.667744
  Ga 0.341748 0.163749 0.840434
  Ga 0.502325 -0.001280 0.826075
  Ga 0.503164 0.167269 0.677873
  As 0.419620 0.085181 0.753520
  As 0.419670 0.248609 0.921563
  Sb 0.580281 0.087716 0.917584
  As 0.584109 0.251473 0.754111
  Ga 0.340681 0.328803 0.005171
  Ga 0.335229 0.498205 0.165861
  Ga 0.506043 0.338812 0.161930
  Ga 0.497070 0.494480 -0.003810
  As 0.418563 0.416135 0.083177
  As 0.413267 0.580654 0.245792
  As 0.585435 0.418133 0.246537
  Sb 0.579763 0.582696 0.082646
  Ga 0.326372 0.332118 0.331511
  Ga 0.328626 0.507355 0.493940
  Ga 0.499981 0.333028 0.500035
  Ga 0.499660 0.499708 0.320480
  Sb 0.415209 0.418688 0.412328
  Sb 0.417112 0.586174 0.583618
  Sb 0.586996 0.415938 0.586271
  Sb 0.585964 0.581145 0.410127
  Ga 0.334177 0.335759 0.666939
  Ga 0.340397 0.504599 0.840133
  Ga 0.503799 0.327284 0.839961
  Ga 0.506251 0.505999 0.672088
  Sb 0.422153 0.416690 0.754305
  As 0.419593 0.585075 0.920805
  As 0.581293 0.412429 0.916985
  As 0.583448 0.583528 0.757101
  Ga 0.335985 0.665786 0.002448
  Ga 0.338913 0.830499 0.170122
  Ga 0.489782 0.665012 0.165344
  Ga 0.500756 0.825008 0.001477
  As 0.415181 0.748696 0.083892
  As 0.416835 0.919540 0.246816
  Sb 0.582492 0.748943 0.248362
  Sb 0.583134 0.915708 0.085856
  Ga 0.328916 0.659689 0.325977
  Ga 0.330463 0.829453 0.503782
  Ga 0.503048 0.667537 0.496207
  Ga 0.496396 0.839847 0.327471
  Sb 0.413743 0.748743 0.411254
  Sb 0.416113 0.919196 0.586066
  Sb 0.585651 0.750627 0.586369
  Sb 0.584846 0.920065 0.414236
  Ga 0.335560 0.676577 0.666875
  Ga 0.334140 0.824650 0.836551
  Ga 0.500709 0.664715 0.837347
  Ga 0.498952 0.833536 0.676316
  As 0.418896 0.748345 0.754914
  Sb 0.418328 0.915776 0.917112
  As 0.582439 0.748807 0.916191
  As 0.583571 0.913694 0.750132
  Ga 0.666624 0.005964 0.004569
  Ga 0.662368 0.168633 0.165674
  Ga 0.823651 0.001100 0.166529
  Ga 0.825642 0.163970 -0.002557
  As 0.745704 0.086682 0.085092
  As 0.743382 0.247725 0.250044
  Sb 0.912363 0.082880 0.251897
  Sb 0.914002 0.248936 0.080140
  Ga 0.669068 0.004601 0.326930
  Ga 0.675609 0.166188 0.501010
  Ga 0.828798 -0.005279 0.493795
  Ga 0.823289 0.167836 0.334182
  As 0.749032 0.081525 0.415039
  As 0.749242 0.253030 0.583251
  Sb 0.914367 0.082482 0.579516
  Sb 0.913573 0.253585 0.416435
  Ga 0.666346 -0.012611 0.664768
  Ga 0.665946 0.175312 0.834580
  Ga 0.835796 0.005575 0.837939
  Ga 0.828152 0.170623 0.662114
  Sb 0.745814 0.083036 0.749009
  As 0.747553 0.251910 0.917926
  As 0.914018 0.086597 0.919143
  Sb 0.914034 0.252829 0.752316
  Ga 0.662005 0.330206 -0.002233
  Ga 0.666757 0.503932 0.173209
  Ga 0.826748 0.325792 0.171068
  Ga 0.840486 0.501206 0.002313
  Sb 0.748325 0.416704 0.084515
  As 0.750289 0.585774 0.250251
  Sb 0.912783 0.417176 0.250476
  As 0.914511 0.585919 0.085930
  Ga 0.667838 0.337014 0.327662
  Ga 0.670405 0.494403 0.493511
  Ga 0.827491 0.337706 0.501879
  Ga 0.824448 0.501783 0.333383
  As 0.748992 0.415028 0.412899
  Sb 0.750269 0.581727 0.584011
  As 0.914692 0.412982 0.580954
  Sb 0.915868 0.583946 0.416331
  Ga 0.669110 0.327735 0.672452
  Ga 0.660952 0.493414 0.832476
  Ga 0.827142 0.338673 0.839971
  Ga 0.832392 0.488587 0.666836
  As 0.746902 0.413257 0.752514
  Sb 0.747503 0.582045 0.916917
  As 0.914411 0.416803 0.918618
  Sb 0.912834 0.582199 0.747811
  Ga 0.665075 0.673425 0.001661
  Ga 0.674183 0.833289 0.168728
  Ga 0.832169 0.665165 0.167970
  Ga 0.826839 0.827296 0.004675
  As 0.749390 0.747481 0.087366
  As 0.750305 0.917519 0.250704
  As 0.914452 0.749264 0.248516
  Sb 0.913370 0.915516 0.084760
  Ga 0.675645 0.669430 0.333076
  Ga 0.673919 0.832878 0.497376
  Ga 0.833290 0.674606 0.500354
  Ga 0.833556 0.834035 0.329661
  As 0.754124 0.752857 0.413948
  As 0.750505 0.913941 0.579505
  As 0.913572 0.753876 0.580649
  As 0.911690 0.911425 0.415864
  Ga 0.665681 0.663325 0.676829
  Ga 0.660816 0.830855 0.831200
  Ga 0.825806 0.671219 0.827797
  Ga 0.826531 0.830097 0.661162
  As 0.745154 0.752284 0.748464
  Sb 0.746839 0.916670 0.918048
  Sb 0.915788 0.747109 0.918935
  Sb 0.911172 0.914699 0.749562
K_POINTS automatic
  2 2 2 0 0 0

HUBBARD (atomic)
U In-5p -1.0150000000000001
U Ga-4p -2.8
U As-4p 5.84
U Sb-5p 4.89
