&CONTROL
  calculation = 'scf',
  etot_conv_thr = 0.0001,
  forc_conv_thr = 0.00045,
  outdir = './tmp_In1.0Ga0.0As0.5Sb0.5_cube_3x3x3.6',
  prefix = 'In1.0Ga0.0As0.5Sb0.5_cube_3x3x3.6',
  pseudo_dir = '/work/i254/i254/gentles/data/pseudos/',
  restart_mode = 'from_scratch',
  verbosity = 'low',
/
&SYSTEM
  celldm(1) = 35.75627852028952,
  ecutwfc = 120,
  ibrav = 1,
  nat = 216,
  nbnd = 2160,
  ntyp = 4,
/
&ELECTRONS
  conv_thr = 1d-05,
  mixing_beta = 0.65,
/
&IONS
/
&CELL
  cell_dofree = 'all',
/
ATOMIC_SPECIES
  As  74.9216 As.pbe.NC-SR.standard.v0.5.UPF
  Ga  69.7230 Ga.pbe.NC-SR.standard.v0.5.UPF
  In  114.8180 In.pbe.NC-SR.standard.v0.5.UPF
  Sb  121.7600 Sb.pbe.NC-SR.standard.v0.5.UPF
ATOMIC_POSITIONS crystal
  In -0.006444 0.002420 0.001709
  In 0.004518 0.171953 0.175136
  In 0.172245 0.004644 0.173554
  In 0.165875 0.176206 0.001582
  Sb 0.084184 0.086109 0.086019
  As 0.088557 0.251046 0.253747
  As 0.253121 0.086971 0.253289
  As 0.252867 0.248938 0.085346
  In -0.002118 0.001500 0.343762
  In 0.008949 0.166425 0.498568
  In 0.168377 0.000027 0.490852
  In 0.168299 0.166995 0.334576
  As 0.086441 0.084310 0.415171
  As 0.084189 0.253835 0.578829
  Sb 0.250512 0.085495 0.578553
  As 0.249080 0.248651 0.417259
  In -0.002425 -0.004431 0.667081
  In -0.001872 0.170491 0.837567
  In 0.167264 0.002441 0.833601
  In 0.163167 0.172015 0.659959
  Sb 0.081067 0.086449 0.748522
  As 0.080995 0.251146 0.917755
  Sb 0.250915 0.088470 0.919291
  Sb 0.251841 0.251966 0.747128
  In -0.000531 0.334783 -0.005042
  In -0.002803 0.501290 0.171417
  In 0.168975 0.325962 0.166260
  In 0.166391 0.502235 -0.002091
  Sb 0.083282 0.416216 0.084860
  As 0.081171 0.580230 0.253271
  Sb 0.249770 0.414945 0.251252
  Sb 0.251757 0.583998 0.085741
  In 0.006480 0.336443 0.330844
  In 0.006485 0.495367 0.503261
  In 0.169203 0.334502 0.498291
  In 0.160801 0.498700 0.335112
  As 0.085009 0.415002 0.418007
  As 0.085675 0.582239 0.580894
  As 0.249349 0.417753 0.581742
  Sb 0.249668 0.584264 0.417245
  In -0.002217 0.328339 0.662621
  In 0.002502 0.500111 0.838223
  In 0.162831 0.329144 0.835629
  In 0.170193 0.503580 0.662561
  Sb 0.083257 0.416297 0.747093
  As 0.085802 0.581652 0.916393
  Sb 0.252324 0.413889 0.916593
  As 0.250360 0.583677 0.746787
  In 0.002527 0.658418 -0.000379
  In -0.002078 0.839475 0.163471
  In 0.164008 0.661146 0.175293
  In 0.171458 0.828926 -0.004220
  Sb 0.084373 0.747579 0.084672
  Sb 0.083377 0.918899 0.255301
  Sb 0.253088 0.748385 0.255095
  Sb 0.253403 0.916199 0.085865
  In 0.009426 0.667824 0.334861
  In -0.005129 0.829954 0.494293
  In 0.163374 0.669359 0.502470
  In 0.167760 0.832912 0.341620
  As 0.084233 0.750818 0.419427
  Sb 0.083433 0.914421 0.577346
  As 0.251725 0.746046 0.579908
  As 0.251536 0.917183 0.414858
  In 0.000761 0.665560 0.656378
  In -0.003094 0.835708 0.826052
  In 0.170014 0.661024 0.835054
  In 0.171921 0.828231 0.658701
  Sb 0.085595 0.746887 0.746361
  Sb 0.080915 0.916912 0.917183
  As 0.251027 0.747261 0.913835
  Sb 0.250094 0.914134 0.748936
  In 0.337852 0.006221 0.005421
  In 0.333815 0.167181 0.168336
  In 0.491802 0.002983 0.170517
  In 0.500101 0.168550 0.002302
  As 0.417389 0.088044 0.086197
  As 0.415127 0.248905 0.250277
  Sb 0.582621 0.085523 0.253234
  As 0.579602 0.249646 0.086309
  In 0.332377 0.001456 0.333763
  In 0.337071 0.170688 0.494850
  In 0.499845 0.000610 0.490191
  In 0.494533 0.170024 0.336303
  As 0.414869 0.084559 0.414213
  As 0.415694 0.253509 0.577530
  Sb 0.584538 0.083702 0.578412
  As 0.581364 0.249238 0.414266
  In 0.334239 0.000282 0.665282
  In 0.338198 0.173378 0.837712
  In 0.504361 0.003314 0.836533
  In 0.494943 0.171184 0.657941
  Sb 0.418232 0.086168 0.750208
  As 0.417232 0.251889 0.922550
  As 0.580833 0.087746 0.917770
  Sb 0.578756 0.249966 0.749871
  In 0.337102 0.331169 0.007204
  In 0.339769 0.497854 0.168099
  In 0.497613 0.330969 0.168743
  In 0.496775 0.498913 0.007625
  As 0.418150 0.413831 0.087736
  As 0.418911 0.581402 0.248146
  As 0.579663 0.412843 0.248493
  As 0.577781 0.580914 0.087396
  In 0.332142 0.325574 0.334537
  In 0.332757 0.499998 0.505271
  In 0.504964 0.329686 0.500460
  In 0.499694 0.498273 0.325849
  Sb 0.417354 0.414812 0.416982
  As 0.414186 0.583768 0.584226
  As 0.578963 0.415387 0.582557
  Sb 0.579414 0.584758 0.416866
  In 0.334933 0.337439 0.659345
  In 0.331991 0.498244 0.823279
  In 0.489457 0.334177 0.833749
  In 0.494582 0.496148 0.661165
  As 0.414432 0.415805 0.744631
  Sb 0.412498 0.582525 0.916955
  Sb 0.579581 0.415140 0.918588
  Sb 0.580502 0.582082 0.745331
  In 0.332064 0.674596 0.001656
  In 0.340968 0.833210 0.171132
  In 0.496284 0.663534 0.165410
  In 0.496881 0.828472 0.006942
  As 0.415947 0.748563 0.087258
  As 0.415340 0.919215 0.254699
  Sb 0.580078 0.750836 0.253225
  Sb 0.580736 0.918842 0.087381
  In 0.343758 0.663555 0.334295
  In 0.327635 0.828605 0.494367
  In 0.493297 0.670194 0.502979
  In 0.495915 0.837913 0.338658
  As 0.415902 0.751029 0.417247
  Sb 0.415971 0.913903 0.577256
  As 0.579999 0.751039 0.579804
  As 0.583904 0.916284 0.415821
  In 0.332230 0.665424 0.664920
  In 0.334167 0.825965 0.831737
  In 0.493852 0.667917 0.827950
  In 0.498615 0.827599 0.665044
  As 0.413845 0.747935 0.745681
  Sb 0.416751 0.915488 0.918189
  Sb 0.581154 0.747081 0.917268
  Sb 0.584984 0.917348 0.747286
  In 0.659807 0.005970 -0.002212
  In 0.665761 0.174401 0.167779
  In 0.832216 -0.006460 0.169971
  In 0.838106 0.160707 -0.001544
  Sb 0.748830 0.083083 0.086130
  As 0.746182 0.251629 0.252551
  Sb 0.914721 0.083679 0.253462
  Sb 0.917257 0.251074 0.085760
  In 0.668130 -0.003358 0.336002
  In 0.667340 0.166675 0.489340
  In 0.829517 -0.001255 0.495954
  In 0.823233 0.166575 0.333689
  As 0.748158 0.080564 0.414539
  Sb 0.749640 0.249960 0.581901
  Sb 0.915676 0.084532 0.582313
  Sb 0.919322 0.249003 0.413349
  In 0.675627 0.000043 0.662928
  In 0.665795 0.159858 0.831217
  In 0.838022 0.004168 0.828148
  In 0.832771 0.168506 0.674297
  As 0.751441 0.082226 0.749486
  Sb 0.751889 0.247071 0.915236
  As 0.918241 0.083235 0.914087
  As 0.918938 0.250038 0.751191
  In 0.662782 0.326823 0.003996
  In 0.657171 0.498955 0.169031
  In 0.833041 0.333054 0.177166
  In 0.841459 0.495449 0.001982
  Sb 0.748777 0.415423 0.087148
  Sb 0.749618 0.582251 0.250714
  As 0.920038 0.415505 0.252051
  As 0.920611 0.579108 0.082954
  In 0.659874 0.330066 0.330073
  In 0.660344 0.495561 0.501780
  In 0.839924 0.335894 0.502531
  In 0.837907 0.495757 0.332295
  Sb 0.747947 0.413042 0.415915
  Sb 0.750461 0.583222 0.579346
  As 0.921952 0.415143 0.582410
  Sb 0.920867 0.583726 0.418862
  In 0.660899 0.336302 0.662914
  In 0.666455 0.499205 0.833201
  In 0.840924 0.334015 0.832527
  In 0.839457 0.496724 0.660658
  Sb 0.752232 0.415612 0.747100
  Sb 0.751431 0.581094 0.920866
  As 0.919495 0.416889 0.915451
  Sb 0.919430 0.583207 0.748386
  In 0.660777 0.660424 0.006718
  In 0.669536 0.838257 0.174708
  In 0.838684 0.661357 0.162460
  In 0.836506 0.837261 0.003900
  Sb 0.749165 0.750364 0.085829
  As 0.751199 0.917128 0.255286
  Sb 0.917811 0.750721 0.251568
  As 0.915107 0.919695 0.084597
  In 0.671642 0.672352 0.340296
  In 0.663065 0.835276 0.501050
  In 0.833030 0.674903 0.497933
  In 0.830764 0.836815 0.337526
  As 0.749385 0.756988 0.420375
  As 0.750866 0.916278 0.578718
  As 0.917210 0.751345 0.580001
  As 0.913807 0.916631 0.418327
  In 0.661765 0.669960 0.659005
  In 0.668418 0.833930 0.835017
  In 0.830988 0.667384 0.831123
  In 0.837591 0.837882 0.658836
  Sb 0.749993 0.752987 0.743376
  Sb 0.752264 0.922531 0.917170
  Sb 0.918162 0.749396 0.917060
  As 0.914577 0.917217 0.746564
K_POINTS automatic
  2 2 2 0 0 0

HUBBARD (atomic)
U In-5p -1.0150000000000001
U Ga-4p -2.8
U As-4p 3.26
U Sb-5p 3.16
