&CONTROL
  calculation = 'scf',
  etot_conv_thr = 0.0001,
  forc_conv_thr = 0.00045,
  outdir = './tmp_In1.0Ga0.0As0.25Sb0.75_cube_3x3x3.4',
  prefix = 'In1.0Ga0.0As0.25Sb0.75_cube_3x3x3.4',
  pseudo_dir = '/work/i254/i254/gentles/data/pseudos/',
  restart_mode = 'from_scratch',
  verbosity = 'low',
/
&SYSTEM
  celldm(1) = 36.39087168709612,
  ecutwfc = 120,
  ibrav = 1,
  nat = 216,
  nbnd = 2160,
  ntyp = 4,
/
&ELECTRONS
  conv_thr = 1d-05,
  mixing_beta = 0.65,
/
&IONS
/
&CELL
  cell_dofree = 'all',
/
ATOMIC_SPECIES
  As  74.9216 As.pbe.NC-SR.standard.v0.5.UPF
  Ga  69.7230 Ga.pbe.NC-SR.standard.v0.5.UPF
  In  114.8180 In.pbe.NC-SR.standard.v0.5.UPF
  Sb  121.7600 Sb.pbe.NC-SR.standard.v0.5.UPF
ATOMIC_POSITIONS crystal
  In -0.005126 -0.002853 0.004070
  In -0.005747 0.161864 0.170400
  In 0.166393 0.001353 0.166411
  In 0.171532 0.167240 0.000207
  Sb 0.081853 0.084163 0.082827
  Sb 0.078654 0.249815 0.249858
  Sb 0.250928 0.087773 0.248478
  As 0.250223 0.247001 0.083357
  In -0.004330 0.004978 0.329905
  In -0.005859 0.172518 0.504707
  In 0.163402 -0.000551 0.499078
  In 0.163978 0.167573 0.334467
  Sb 0.077579 0.086729 0.419063
  As 0.078015 0.248558 0.585574
  Sb 0.245971 0.083775 0.584209
  Sb 0.248657 0.250710 0.417637
  In -0.004426 0.005803 0.669171
  In 0.000835 0.166106 0.827067
  In 0.163631 0.010621 0.833550
  In 0.155513 0.165661 0.665442
  As 0.079695 0.084514 0.748347
  Sb 0.083540 0.249257 0.914864
  As 0.246740 0.085658 0.916894
  Sb 0.244015 0.247788 0.749337
  In -0.003610 0.333665 -0.004090
  In -0.004108 0.493947 0.172861
  In 0.167118 0.326329 0.160881
  In 0.165013 0.501636 0.001372
  Sb 0.080620 0.414815 0.083133
  Sb 0.081179 0.582369 0.252168
  Sb 0.249918 0.411963 0.246619
  Sb 0.248887 0.585911 0.085404
  In -0.009666 0.331681 0.333867
  In -0.006503 0.504024 0.496419
  In 0.159011 0.327897 0.505072
  In 0.165464 0.494923 0.333143
  Sb 0.077770 0.413952 0.417896
  Sb 0.080449 0.582467 0.584332
  Sb 0.246150 0.414310 0.584594
  Sb 0.249369 0.583448 0.414210
  In 0.002176 0.329864 0.668632
  In -0.001063 0.489943 0.832734
  In 0.161784 0.337395 0.829647
  In 0.159833 0.494961 0.670391
  As 0.079526 0.413546 0.749289
  Sb 0.080378 0.581239 0.913822
  Sb 0.248380 0.414829 0.918829
  Sb 0.246331 0.583547 0.749882
  In -0.000965 0.665397 0.000829
  In -0.005355 0.836356 0.163136
  In 0.167140 0.670887 0.171779
  In 0.166354 0.835097 -0.003030
  Sb 0.082935 0.751734 0.083232
  Sb 0.080975 0.917353 0.249243
  As 0.248881 0.750254 0.249995
  Sb 0.250183 0.917067 0.083202
  In -0.006187 0.663099 0.337258
  In -0.001509 0.836375 0.497846
  In 0.166707 0.665498 0.501884
  In 0.167072 0.829073 0.328720
  Sb 0.082093 0.748649 0.416534
  Sb 0.079443 0.918703 0.586549
  Sb 0.248789 0.751496 0.586837
  Sb 0.248042 0.916341 0.413680
  In 0.003539 0.670652 0.670910
  In -0.000518 0.836051 0.825031
  In 0.160132 0.670778 0.829532
  In 0.161230 0.832504 0.672057
  As 0.080913 0.752387 0.750450
  Sb 0.080670 0.919816 0.913958
  Sb 0.250068 0.749893 0.913450
  Sb 0.247716 0.918905 0.753214
  In 0.327959 0.004489 -0.004571
  In 0.335982 0.174531 0.165632
  In 0.503210 -0.002984 0.162568
  In 0.504647 0.163317 -0.002929
  Sb 0.416514 0.084155 0.081707
  As 0.417804 0.251522 0.248430
  Sb 0.585449 0.081453 0.250727
  Sb 0.584199 0.250321 0.084367
  In 0.334083 0.001452 0.331398
  In 0.332340 0.165168 0.500272
  In 0.506855 -0.003598 0.494677
  In 0.497336 0.170042 0.327324
  Sb 0.419017 0.083569 0.415753
  Sb 0.416540 0.249550 0.583226
  Sb 0.585555 0.083870 0.580354
  Sb 0.586070 0.250365 0.412630
  In 0.332628 -0.000020 0.666527
  In 0.327467 0.164359 0.836493
  In 0.504772 0.004867 0.838149
  In 0.500231 0.166371 0.667017
  Sb 0.416002 0.083469 0.752620
  Sb 0.416229 0.248295 0.917605
  As 0.585541 0.083007 0.918751
  Sb 0.584828 0.248056 0.753237
  In 0.329969 0.327774 0.004909
  In 0.334096 0.499815 0.165729
  In 0.502686 0.333330 0.174219
  In 0.505085 0.495065 -0.002345
  Sb 0.418745 0.413663 0.084353
  Sb 0.417734 0.583612 0.250235
  As 0.586120 0.415938 0.250588
  Sb 0.585552 0.580805 0.085842
  In 0.336505 0.328867 0.329801
  In 0.331719 0.498523 0.499174
  In 0.502283 0.331493 0.499653
  In 0.504602 0.495740 0.329149
  Sb 0.418170 0.414860 0.414847
  Sb 0.416345 0.583292 0.583379
  Sb 0.587766 0.415035 0.582389
  Sb 0.587705 0.580309 0.413449
  In 0.332188 0.331244 0.668322
  In 0.331606 0.500119 0.834848
  In 0.502944 0.335821 0.837776
  In 0.502217 0.499538 0.665643
  Sb 0.417405 0.416562 0.751036
  Sb 0.419143 0.582526 0.916584
  As 0.584077 0.415405 0.917370
  Sb 0.584451 0.584545 0.750833
  In 0.333899 0.666692 -0.000720
  In 0.329804 0.830126 0.170999
  In 0.501328 0.668225 0.166563
  In 0.504005 0.839447 0.006297
  Sb 0.416487 0.752005 0.084075
  Sb 0.419164 0.915166 0.250107
  Sb 0.588108 0.753078 0.249018
  As 0.585715 0.919615 0.083521
  In 0.330775 0.671004 0.329106
  In 0.332183 0.834310 0.500205
  In 0.501476 0.664609 0.497234
  In 0.507689 0.837672 0.337371
  Sb 0.417758 0.751886 0.415191
  Sb 0.418759 0.917278 0.582236
  Sb 0.582487 0.751548 0.582749
  As 0.589449 0.918722 0.415003
  In 0.335767 0.669341 0.670706
  In 0.337841 0.832297 0.830644
  In 0.496553 0.671440 0.830210
  In 0.496227 0.830624 0.671142
  As 0.415774 0.750485 0.750255
  Sb 0.418243 0.919122 0.918029
  Sb 0.581870 0.751225 0.918680
  Sb 0.583511 0.917264 0.751838
  In 0.661431 0.000824 0.000426
  In 0.670306 0.167688 0.168602
  In 0.835664 -0.001898 0.172010
  In 0.832105 0.166192 0.000432
  Sb 0.750802 0.080171 0.085061
  Sb 0.753742 0.250970 0.254823
  As 0.913558 0.082698 0.250813
  Sb 0.915930 0.250302 0.084846
  In 0.673351 -0.000870 0.336683
  In 0.672513 0.162530 0.492745
  In 0.835581 0.011003 0.502379
  In 0.837064 0.162293 0.337109
  As 0.754369 0.082338 0.415474
  Sb 0.754291 0.248071 0.578964
  As 0.917922 0.087977 0.585684
  As 0.914982 0.247333 0.416039
  In 0.667848 0.000616 0.666329
  In 0.666617 0.161266 0.838018
  In 0.837674 -0.004617 0.829865
  In 0.841610 0.169599 0.667107
  Sb 0.754072 0.084007 0.749497
  Sb 0.750574 0.251470 0.916007
  Sb 0.917209 0.083160 0.914865
  As 0.921311 0.249594 0.748956
  In 0.664735 0.337121 -0.001574
  In 0.668345 0.498737 0.174211
  In 0.836983 0.336670 0.171691
  In 0.838379 0.493363 -0.005111
  Sb 0.751392 0.417170 0.084872
  As 0.751330 0.578342 0.252313
  As 0.913909 0.416991 0.254504
  Sb 0.915203 0.579223 0.084706
  In 0.668824 0.340974 0.333102
  In 0.673929 0.494091 0.494307
  In 0.833388 0.332341 0.489485
  In 0.833412 0.499588 0.333230
  As 0.753925 0.416938 0.412216
  Sb 0.752551 0.581921 0.579678
  Sb 0.916496 0.412855 0.580850
  As 0.913054 0.581464 0.414268
  In 0.670303 0.329317 0.666814
  In 0.663483 0.495349 0.837093
  In 0.842220 0.329613 0.831550
  In 0.834394 0.498794 0.666062
  Sb 0.752444 0.414326 0.752358
  Sb 0.750575 0.580706 0.917562
  As 0.917727 0.412044 0.913880
  Sb 0.919282 0.581691 0.751283
  In 0.667924 0.666971 0.001818
  In 0.668301 0.844389 0.166846
  In 0.827507 0.660206 0.170525
  In 0.837784 0.838409 0.006001
  Sb 0.750547 0.752922 0.086730
  As 0.749912 0.921057 0.250005
  Sb 0.912964 0.749453 0.249754
  As 0.914885 0.919632 0.087446
  In 0.672674 0.662834 0.328050
  In 0.665238 0.837061 0.496798
  In 0.837808 0.664522 0.495465
  In 0.827850 0.838721 0.328899
  Sb 0.750463 0.750304 0.414837
  Sb 0.752731 0.919829 0.581130
  Sb 0.918247 0.750190 0.583165
  Sb 0.912821 0.921698 0.415417
  In 0.669394 0.666968 0.664177
  In 0.668542 0.832652 0.834884
  In 0.834111 0.666264 0.834447
  In 0.838524 0.839078 0.667531
  Sb 0.753363 0.751736 0.748538
  Sb 0.751125 0.917965 0.918981
  Sb 0.918030 0.754006 0.916596
  As 0.918780 0.919011 0.747346
K_POINTS automatic
  2 2 2 0 0 0

HUBBARD (atomic)
U In-5p -1.0575
U Ga-4p -2.335
U As-4p 3.26
U Sb-5p 3.16
