&CONTROL
  calculation = 'scf',
  etot_conv_thr = 0.0001,
  forc_conv_thr = 0.00045,
  outdir = './tmp_In0.0Ga1.0As0.75Sb0.25_cube_3x3x3.7',
  prefix = 'In0.0Ga1.0As0.75Sb0.25_cube_3x3x3.7',
  pseudo_dir = '/work/i254/i254/gentles/data/pseudos/',
  restart_mode = 'from_scratch',
  verbosity = 'low',
/
&SYSTEM
  celldm(1) = 32.85726133794188,
  ecutwfc = 120,
  ibrav = 1,
  nat = 216,
  nbnd = 2160,
  ntyp = 4,
/
&ELECTRONS
  conv_thr = 1d-05,
  mixing_beta = 0.65,
/
&IONS
/
&CELL
  cell_dofree = 'all',
/
ATOMIC_SPECIES
  As  74.9216 As.pbe.NC-SR.standard.v0.5.UPF
  Ga  69.7230 Ga.pbe.NC-SR.standard.v0.5.UPF
  In  114.8180 In.pbe.NC-SR.standard.v0.5.UPF
  Sb  121.7600 Sb.pbe.NC-SR.standard.v0.5.UPF
ATOMIC_POSITIONS crystal
  Ga 0.001327 0.002636 -0.005327
  Ga 0.005847 0.160626 0.162746
  Ga 0.171182 0.006596 0.161949
  Ga 0.168108 0.166501 -0.004559
  As 0.086809 0.083279 0.076936
  Sb 0.088895 0.249335 0.250490
  As 0.253505 0.081887 0.249839
  As 0.249871 0.248184 0.079855
  Ga -0.000655 -0.001901 0.344900
  Ga -0.000678 0.155691 0.503856
  Ga 0.168791 -0.001294 0.503516
  Ga 0.172017 0.158734 0.337658
  As 0.086031 0.079225 0.421433
  Sb 0.082880 0.248834 0.586336
  As 0.250688 0.083666 0.584501
  As 0.250544 0.244264 0.417652
  Ga 0.000384 -0.000287 0.669701
  Ga -0.000157 0.166302 0.832326
  Ga 0.166173 0.000050 0.833426
  Ga 0.171342 0.162967 0.671667
  As 0.083717 0.082822 0.751586
  As 0.085953 0.248254 0.912776
  As 0.251241 0.082117 0.915348
  As 0.252606 0.247596 0.752105
  Ga 0.008125 0.332204 -0.002985
  Ga 0.005017 0.502878 0.158880
  Ga 0.172139 0.336581 0.161058
  Ga 0.163229 0.496650 -0.008492
  As 0.086524 0.416485 0.079122
  As 0.087949 0.580372 0.247914
  As 0.248766 0.415533 0.250689
  Sb 0.249319 0.580572 0.082111
  Ga 0.004012 0.338406 0.337519
  Ga 0.003045 0.495860 0.506978
  Ga 0.168117 0.330526 0.492506
  Ga 0.168497 0.500597 0.333964
  As 0.086550 0.419332 0.418339
  As 0.080749 0.582890 0.587372
  Sb 0.252203 0.415706 0.583522
  As 0.249141 0.585758 0.418762
  Ga -0.005556 0.334439 0.672921
  Ga 0.001566 0.504502 0.828213
  Ga 0.168205 0.331476 0.831431
  Ga 0.158011 0.496948 0.668234
  As 0.080907 0.414583 0.752442
  As 0.080074 0.583193 0.913576
  As 0.250694 0.412892 0.915051
  Sb 0.249806 0.584446 0.749444
  Ga -0.005879 0.663580 -0.006442
  Ga -0.007878 0.839878 0.159959
  Ga 0.169491 0.669420 0.174708
  Ga 0.167821 0.844187 -0.000020
  Sb 0.082138 0.750416 0.081181
  Sb 0.083922 0.919394 0.248871
  As 0.253395 0.753183 0.253120
  As 0.251899 0.921980 0.083146
  Ga 0.006954 0.660951 0.329341
  Ga -0.003377 0.839155 0.508656
  Ga 0.169306 0.661944 0.508540
  Ga 0.175041 0.836188 0.335230
  Sb 0.085107 0.751234 0.421750
  As 0.084684 0.918468 0.587290
  As 0.250666 0.750650 0.584866
  As 0.253347 0.919796 0.417982
  Ga -0.002308 0.669278 0.665758
  Ga -0.000202 0.834068 0.831191
  Ga 0.157384 0.669856 0.832301
  Ga 0.167208 0.833835 0.667489
  As 0.080404 0.752476 0.747133
  As 0.082426 0.918710 0.913961
  Sb 0.251431 0.754148 0.913574
  As 0.248307 0.918369 0.749672
  Ga 0.334935 -0.000552 -0.002861
  Ga 0.330880 0.162560 0.160950
  Ga 0.498584 0.000498 0.166182
  Ga 0.496008 0.161803 -0.005254
  As 0.415712 0.080704 0.080586
  Sb 0.416699 0.249562 0.248788
  As 0.581602 0.081530 0.251664
  Sb 0.584305 0.248816 0.080662
  Ga 0.336766 0.001165 0.334320
  Ga 0.334261 0.165717 0.501708
  Ga 0.503566 0.003117 0.497892
  Ga 0.503196 0.163842 0.337876
  As 0.417759 0.084052 0.418127
  As 0.416889 0.245074 0.585320
  As 0.584841 0.082418 0.583377
  As 0.584495 0.246994 0.420673
  Ga 0.328698 0.003973 0.671126
  Ga 0.334211 0.165952 0.834270
  Ga 0.501070 0.000777 0.830573
  Ga 0.496099 0.159068 0.663474
  As 0.415293 0.082710 0.751290
  As 0.415456 0.248894 0.915931
  As 0.582652 0.080181 0.915427
  Sb 0.582809 0.248191 0.748758
  Ga 0.332851 0.329087 -0.001113
  Ga 0.334384 0.490072 0.166015
  Ga 0.501512 0.341218 0.165535
  Ga 0.496860 0.495669 -0.003960
  As 0.415656 0.413372 0.079348
  Sb 0.416493 0.582290 0.252029
  As 0.586776 0.415764 0.251655
  Sb 0.584493 0.582810 0.081469
  Ga 0.324806 0.330887 0.334295
  Ga 0.336477 0.510511 0.501657
  Ga 0.502790 0.326382 0.506853
  Ga 0.510261 0.500313 0.334857
  Sb 0.418491 0.415212 0.419076
  As 0.420956 0.587909 0.584823
  As 0.581849 0.416355 0.584240
  As 0.585408 0.586751 0.417793
  Ga 0.338708 0.327581 0.671522
  Ga 0.335852 0.494829 0.834700
  Ga 0.498025 0.335140 0.836778
  Ga 0.500181 0.500162 0.667387
  As 0.418604 0.415456 0.750761
  As 0.419439 0.579568 0.912574
  As 0.584046 0.417445 0.914413
  As 0.582044 0.583527 0.750587
  Ga 0.339232 0.661531 -0.005977
  Ga 0.330265 0.839760 0.169701
  Ga 0.504402 0.672776 0.171745
  Ga 0.503988 0.840142 -0.007945
  Sb 0.418411 0.755301 0.081262
  As 0.417470 0.918214 0.251463
  As 0.582780 0.752872 0.255870
  As 0.581256 0.919345 0.081669
  Ga 0.331011 0.670864 0.339134
  Ga 0.330428 0.831075 0.498013
  Ga 0.502124 0.668803 0.500987
  Ga 0.498565 0.834970 0.335996
  As 0.417134 0.750839 0.418837
  Sb 0.416943 0.917167 0.585988
  As 0.584292 0.750947 0.584366
  As 0.582190 0.916719 0.418323
  Ga 0.339395 0.673337 0.664230
  Ga 0.338881 0.839296 0.826283
  Ga 0.499418 0.666152 0.831884
  Ga 0.506539 0.831234 0.670646
  As 0.420731 0.751604 0.749660
  As 0.418452 0.920163 0.911911
  As 0.582388 0.752928 0.910025
  As 0.585754 0.918058 0.750245
  Ga 0.665400 -0.000498 -0.000623
  Ga 0.667727 0.160562 0.169687
  Ga 0.832419 -0.000551 0.154345
  Ga 0.828937 0.161935 -0.007533
  As 0.747598 0.082922 0.079165
  As 0.743972 0.248514 0.250413
  Sb 0.914825 0.080500 0.250983
  Sb 0.915963 0.246652 0.079846
  Ga 0.661914 0.003315 0.338814
  Ga 0.667726 0.167409 0.504039
  Ga 0.829908 0.000310 0.503847
  Ga 0.823003 0.167143 0.333862
  As 0.746629 0.083704 0.421131
  As 0.750249 0.250626 0.586051
  As 0.914392 0.079070 0.587081
  Sb 0.915081 0.249354 0.420245
  Ga 0.666717 0.000114 0.666923
  Ga 0.668618 0.160511 0.835453
  Ga 0.833715 -0.000213 0.830690
  Ga 0.833042 0.165556 0.667134
  As 0.750804 0.081856 0.749144
  As 0.748324 0.247272 0.913529
  As 0.916174 0.082678 0.912481
  As 0.914729 0.246696 0.750232
  Ga 0.670148 0.336270 -0.006693
  Ga 0.669616 0.495288 0.169792
  Ga 0.824890 0.330407 0.165341
  Ga 0.828768 0.502679 0.002458
  As 0.748442 0.416316 0.082040
  As 0.745626 0.582616 0.252162
  Sb 0.914249 0.419688 0.248179
  As 0.915920 0.582790 0.080963
  Ga 0.663688 0.329571 0.335417
  Ga 0.660850 0.497106 0.497660
  Ga 0.829169 0.337341 0.506780
  Ga 0.821838 0.499887 0.337135
  As 0.744209 0.413427 0.418802
  Sb 0.749049 0.582980 0.585813
  As 0.916346 0.416394 0.588299
  Sb 0.915708 0.582985 0.420056
  Ga 0.669911 0.337975 0.663988
  Ga 0.666507 0.499823 0.830889
  Ga 0.828011 0.326316 0.828643
  Ga 0.837859 0.498281 0.672631
  As 0.750486 0.416279 0.750005
  As 0.750389 0.582862 0.911538
  Sb 0.914822 0.416372 0.913756
  As 0.917765 0.586753 0.748968
  Ga 0.665732 0.667653 -0.013904
  Ga 0.657064 0.833861 0.166745
  Ga 0.830956 0.657923 0.167109
  Ga 0.836765 0.837880 -0.008216
  Sb 0.749027 0.750445 0.079461
  Sb 0.748754 0.918387 0.250224
  Sb 0.914410 0.749651 0.251438
  As 0.916647 0.920960 0.073564
  Ga 0.667314 0.669557 0.335314
  Ga 0.664713 0.835169 0.502660
  Ga 0.832789 0.677439 0.503416
  Ga 0.832254 0.834902 0.344471
  As 0.746890 0.753190 0.420670
  As 0.748196 0.916745 0.585213
  As 0.915140 0.755087 0.587773
  As 0.914338 0.918151 0.425267
  Ga 0.662521 0.670445 0.671463
  Ga 0.668099 0.836017 0.832083
  Ga 0.832880 0.667541 0.830499
  Ga 0.831493 0.835241 0.669043
  As 0.749032 0.751975 0.750823
  As 0.749699 0.919242 0.914346
  As 0.916182 0.750513 0.911539
  As 0.916376 0.916665 0.750428
K_POINTS automatic
  2 2 2 0 0 0

HUBBARD (atomic)
U In-5p -0.9725
U Ga-4p -3.2649999999999997
U As-4p 5.84
U Sb-5p 4.89
