&CONTROL
  calculation = 'scf',
  etot_conv_thr = 0.0001,
  forc_conv_thr = 0.00045,
  outdir = './tmp_In0.0Ga1.0As0.25Sb0.75_cube_3x3x3.1',
  prefix = 'In0.0Ga1.0As0.25Sb0.75_cube_3x3x3.1',
  pseudo_dir = '/work/i254/i254/gentles/data/pseudos/',
  restart_mode = 'from_scratch',
  verbosity = 'low',
/
&SYSTEM
  celldm(1) = 34.03070849787222,
  ecutwfc = 120,
  ibrav = 1,
  nat = 216,
  nbnd = 2160,
  ntyp = 4,
/
&ELECTRONS
  conv_thr = 1d-05,
  mixing_beta = 0.65,
/
&IONS
/
&CELL
  cell_dofree = 'all',
/
ATOMIC_SPECIES
  As  74.9216 As.pbe.NC-SR.standard.v0.5.UPF
  Ga  69.7230 Ga.pbe.NC-SR.standard.v0.5.UPF
  In  114.8180 In.pbe.NC-SR.standard.v0.5.UPF
  Sb  121.7600 Sb.pbe.NC-SR.standard.v0.5.UPF
ATOMIC_POSITIONS crystal
  Ga 0.004420 0.005489 0.002766
  Ga 0.002709 0.165945 0.155182
  Ga 0.166746 0.003637 0.155106
  Ga 0.165889 0.163060 -0.004610
  As 0.086057 0.085772 0.078013
  Sb 0.081404 0.250505 0.244514
  Sb 0.250570 0.083422 0.245941
  Sb 0.249912 0.250515 0.080296
  Ga -0.002421 -0.004013 0.334099
  Ga 0.000013 0.166612 0.501483
  Ga 0.169310 -0.001236 0.500037
  Ga 0.165644 0.166553 0.329480
  Sb 0.082917 0.082207 0.416210
  Sb 0.086048 0.248378 0.584850
  Sb 0.252123 0.082464 0.587081
  Sb 0.252116 0.250353 0.413422
  Ga 0.007391 0.005655 0.675078
  Ga 0.008697 0.170245 0.836423
  Ga 0.168532 0.008906 0.832576
  Ga 0.163504 0.162206 0.673687
  As 0.084881 0.086659 0.755618
  As 0.085279 0.248827 0.920703
  As 0.248974 0.081999 0.916584
  Sb 0.248502 0.246428 0.756693
  Ga -0.000054 0.328767 -0.001875
  Ga 0.007033 0.494485 0.158652
  Ga 0.162788 0.336383 0.160067
  Ga 0.166124 0.490439 0.000349
  As 0.081981 0.411757 0.077356
  Sb 0.086632 0.581584 0.247548
  Sb 0.253941 0.414847 0.247065
  Sb 0.250190 0.580058 0.082996
  Ga -0.000918 0.334056 0.331474
  Ga -0.000414 0.500266 0.500022
  Ga 0.169871 0.333276 0.500186
  Ga 0.171590 0.500581 0.333407
  Sb 0.084872 0.416355 0.416220
  Sb 0.085776 0.584540 0.583265
  Sb 0.253791 0.417976 0.583771
  Sb 0.254598 0.587289 0.417399
  Ga 0.000812 0.331799 0.667882
  Ga -0.004079 0.493132 0.839404
  Ga 0.168259 0.330424 0.846586
  Ga 0.166442 0.498448 0.669116
  Sb 0.085041 0.412458 0.756243
  Sb 0.084179 0.579093 0.918114
  As 0.248935 0.414861 0.920297
  Sb 0.252161 0.583325 0.749704
  Ga 0.003298 0.666528 0.002425
  Ga -0.000716 0.833784 0.166623
  Ga 0.174213 0.669736 0.171566
  Ga 0.171950 0.839521 0.003984
  Sb 0.088072 0.751866 0.085369
  Sb 0.086708 0.918361 0.246807
  As 0.252402 0.752483 0.248301
  As 0.249085 0.920121 0.081771
  Ga 0.002218 0.665094 0.333256
  Ga -0.002548 0.839131 0.495115
  Ga 0.173682 0.672634 0.504969
  Ga 0.172538 0.830246 0.327089
  Sb 0.086517 0.751929 0.416137
  Sb 0.085160 0.916650 0.585541
  As 0.256477 0.749413 0.583213
  Sb 0.253669 0.912746 0.417058
  Ga 0.000008 0.665568 0.667401
  Ga 0.002344 0.836486 0.834687
  Ga 0.167488 0.666859 0.834180
  Ga 0.175789 0.828745 0.662724
  Sb 0.085461 0.751220 0.749009
  Sb 0.087410 0.921529 0.917490
  Sb 0.251759 0.752079 0.918419
  Sb 0.253205 0.919247 0.750525
  Ga 0.326811 -0.002006 -0.003182
  Ga 0.337297 0.173088 0.170275
  Ga 0.501930 -0.005460 0.161530
  Ga 0.498356 0.167336 -0.001157
  Sb 0.413938 0.081868 0.082210
  As 0.416485 0.253922 0.249404
  Sb 0.581405 0.084523 0.245740
  Sb 0.581066 0.250872 0.083257
  Ga 0.334500 -0.000354 0.332158
  Ga 0.333185 0.167534 0.500692
  Ga 0.494818 -0.004720 0.505026
  Ga 0.495545 0.172362 0.326823
  Sb 0.417494 0.084339 0.416042
  Sb 0.418033 0.250546 0.585315
  Sb 0.579821 0.082159 0.588115
  Sb 0.580727 0.252172 0.415519
  Ga 0.342205 -0.000825 0.667112
  Ga 0.332584 0.156855 0.835066
  Ga 0.490722 0.001040 0.835691
  Ga 0.494523 0.163193 0.675401
  As 0.414712 0.080793 0.753133
  Sb 0.414170 0.250950 0.915088
  Sb 0.583027 0.082574 0.916098
  Sb 0.584621 0.250502 0.751608
  Ga 0.332884 0.339852 -0.000806
  Ga 0.339597 0.495906 0.160700
  Ga 0.491637 0.333078 0.164899
  Ga 0.501131 0.489358 0.000630
  As 0.417057 0.413703 0.080693
  Sb 0.414699 0.583998 0.251158
  Sb 0.579446 0.417186 0.248021
  Sb 0.582669 0.579679 0.083098
  Ga 0.341912 0.333968 0.333710
  Ga 0.342136 0.500333 0.498526
  Ga 0.500849 0.340992 0.502052
  Ga 0.495155 0.496374 0.337911
  As 0.418386 0.416088 0.418776
  As 0.416710 0.583410 0.579320
  As 0.580162 0.418775 0.584867
  Sb 0.580790 0.583466 0.416965
  Ga 0.332543 0.330852 0.670805
  Ga 0.327596 0.494242 0.838246
  Ga 0.504053 0.336383 0.837398
  Ga 0.497145 0.502306 0.658084
  Sb 0.417511 0.417817 0.750721
  Sb 0.416724 0.577449 0.918522
  As 0.582212 0.415600 0.916770
  Sb 0.582284 0.579030 0.749320
  Ga 0.334757 0.665343 0.000039
  Ga 0.323795 0.836351 0.164966
  Ga 0.498681 0.666700 0.165651
  Ga 0.497957 0.845214 -0.000228
  Sb 0.414669 0.755339 0.082983
  Sb 0.415969 0.912677 0.248606
  Sb 0.582200 0.749501 0.250397
  As 0.583116 0.919412 0.081234
  Ga 0.332977 0.676909 0.331977
  Ga 0.337617 0.830100 0.504649
  Ga 0.490285 0.666347 0.497478
  Ga 0.493331 0.826084 0.339238
  As 0.412592 0.749640 0.419454
  As 0.414956 0.915904 0.583470
  Sb 0.577491 0.749082 0.581885
  Sb 0.578726 0.915036 0.417444
  Ga 0.335224 0.664609 0.658803
  Ga 0.338047 0.838094 0.838513
  Ga 0.497724 0.664340 0.832315
  Ga 0.496328 0.839199 0.662223
  Sb 0.415571 0.751306 0.747514
  As 0.413871 0.921237 0.918855
  Sb 0.578654 0.751840 0.918073
  Sb 0.579694 0.920651 0.750577
  Ga 0.666079 0.002263 0.007086
  Ga 0.670432 0.163356 0.160247
  Ga 0.827107 0.006081 0.161540
  Ga 0.833690 0.168813 0.006140
  As 0.749755 0.085500 0.080834
  Sb 0.752300 0.248630 0.245119
  Sb 0.918473 0.083341 0.244990
  As 0.920421 0.247612 0.079285
  Ga 0.662654 0.001194 0.333909
  Ga 0.662760 0.166878 0.501815
  Ga 0.838789 -0.004431 0.496869
  Ga 0.834027 0.165768 0.331490
  Sb 0.750206 0.082576 0.418177
  Sb 0.746980 0.252018 0.586282
  Sb 0.917486 0.082015 0.586900
  Sb 0.916608 0.249963 0.416476
  Ga 0.670779 0.005275 0.672263
  Ga 0.671975 0.163123 0.830531
  Ga 0.830035 0.006805 0.832478
  Ga 0.828660 0.163516 0.672258
  As 0.750543 0.083971 0.751457
  Sb 0.749872 0.251454 0.918279
  Sb 0.918283 0.087929 0.918133
  Sb 0.916680 0.249442 0.753192
  Ga 0.660164 0.337315 -0.003755
  Ga 0.671044 0.502387 0.170105
  Ga 0.840701 0.326789 0.158797
  Ga 0.839072 0.493646 -0.004412
  Sb 0.751437 0.414712 0.081702
  As 0.748727 0.582511 0.249680
  Sb 0.916848 0.417223 0.244856
  Sb 0.916876 0.581512 0.083580
  Ga 0.666056 0.332438 0.329196
  Ga 0.659375 0.496341 0.504423
  Ga 0.832636 0.333789 0.500043
  Ga 0.828353 0.502798 0.327049
  Sb 0.747009 0.417784 0.415419
  Sb 0.747149 0.580365 0.585448
  Sb 0.915061 0.417351 0.586699
  Sb 0.915030 0.581960 0.414264
  Ga 0.663620 0.341301 0.667627
  Ga 0.664405 0.490416 0.833736
  Ga 0.833087 0.338738 0.834914
  Ga 0.825564 0.494668 0.674360
  As 0.746621 0.414019 0.753449
  Sb 0.749271 0.578216 0.915209
  As 0.917968 0.411534 0.917839
  Sb 0.915465 0.579462 0.752011
  Ga 0.665004 0.664843 -0.001150
  Ga 0.659766 0.837853 0.162238
  Ga 0.828108 0.662053 0.171134
  Ga 0.834702 0.834086 -0.000522
  Sb 0.748029 0.749815 0.083950
  Sb 0.747537 0.919020 0.248224
  Sb 0.915682 0.749310 0.251245
  Sb 0.916618 0.920532 0.083237
  Ga 0.670048 0.662336 0.328682
  Ga 0.664484 0.831903 0.500017
  Ga 0.832123 0.664682 0.500664
  Ga 0.836497 0.838578 0.335846
  Sb 0.750461 0.749902 0.415144
  Sb 0.749751 0.917767 0.583347
  Sb 0.917431 0.750779 0.581630
  As 0.917346 0.917645 0.414765
  Ga 0.664054 0.667199 0.667370
  Ga 0.663226 0.835349 0.834296
  Ga 0.832291 0.665836 0.833549
  Ga 0.834784 0.835091 0.666823
  Sb 0.749006 0.752074 0.750554
  Sb 0.748280 0.919922 0.918375
  Sb 0.919028 0.749296 0.916756
  Sb 0.917163 0.920975 0.752232
K_POINTS automatic
  2 2 2 0 0 0

HUBBARD (atomic)
U In-5p -1.0575
U Ga-4p -2.335
U As-4p 5.84
U Sb-5p 4.89
