&CONTROL
  calculation = 'scf',
  etot_conv_thr = 0.0001,
  forc_conv_thr = 0.00045,
  outdir = './tmp_In1.0Ga0.0As0.5Sb0.5_cube_3x3x3.3',
  prefix = 'In1.0Ga0.0As0.5Sb0.5_cube_3x3x3.3',
  pseudo_dir = '/work/i254/i254/gentles/data/pseudos/',
  restart_mode = 'from_scratch',
  verbosity = 'low',
/
&SYSTEM
  celldm(1) = 35.757257216140346,
  ecutwfc = 120,
  ibrav = 1,
  nat = 216,
  nbnd = 2160,
  ntyp = 4,
/
&ELECTRONS
  conv_thr = 1d-05,
  mixing_beta = 0.65,
/
&IONS
/
&CELL
  cell_dofree = 'all',
/
ATOMIC_SPECIES
  As  74.9216 As.pbe.NC-SR.standard.v0.5.UPF
  Ga  69.7230 Ga.pbe.NC-SR.standard.v0.5.UPF
  In  114.8180 In.pbe.NC-SR.standard.v0.5.UPF
  Sb  121.7600 Sb.pbe.NC-SR.standard.v0.5.UPF
ATOMIC_POSITIONS crystal
  In -0.004225 0.004480 0.002344
  In 0.000114 0.164601 0.159064
  In 0.165073 -0.001228 0.156398
  In 0.163355 0.170261 0.001803
  As 0.082760 0.083985 0.079531
  Sb 0.081855 0.254216 0.245109
  Sb 0.248878 0.082935 0.244672
  As 0.249801 0.251813 0.081927
  In -0.004166 -0.006373 0.336238
  In 0.001117 0.169265 0.498184
  In 0.173110 0.000706 0.504128
  In 0.164580 0.168270 0.331201
  Sb 0.084358 0.080314 0.417259
  Sb 0.084064 0.253264 0.585824
  As 0.254492 0.079877 0.586278
  Sb 0.251168 0.252269 0.417778
  In -0.000566 -0.000222 0.667296
  In -0.003535 0.169453 0.838490
  In 0.172233 -0.005343 0.829447
  In 0.171906 0.163194 0.663278
  Sb 0.084032 0.084435 0.752423
  As 0.079938 0.248454 0.920386
  Sb 0.250567 0.083082 0.918571
  Sb 0.252472 0.250435 0.750710
  In -0.000933 0.326719 0.003563
  In 0.000007 0.498998 0.173282
  In 0.177940 0.336230 0.167129
  In 0.169374 0.508510 0.002290
  Sb 0.085768 0.417355 0.084613
  As 0.087137 0.581195 0.247226
  As 0.255892 0.420929 0.248077
  As 0.253837 0.586097 0.084118
  In -0.004998 0.339916 0.330000
  In 0.000784 0.500823 0.507476
  In 0.171950 0.340836 0.505824
  In 0.170173 0.501641 0.325943
  Sb 0.085020 0.420458 0.416035
  As 0.086224 0.583345 0.584623
  As 0.253147 0.423329 0.585482
  Sb 0.254169 0.584864 0.415623
  In -0.007344 0.333428 0.671351
  In 0.006531 0.505486 0.837703
  In 0.162564 0.328471 0.839862
  In 0.172410 0.505839 0.665851
  Sb 0.085816 0.418026 0.749950
  As 0.089444 0.584873 0.917354
  Sb 0.251279 0.419414 0.916964
  As 0.254030 0.584909 0.750269
  In 0.005952 0.662696 -0.003275
  In -0.005803 0.836533 0.159818
  In 0.172092 0.662381 0.169639
  In 0.176444 0.829846 -0.001287
  Sb 0.087400 0.748826 0.083802
  Sb 0.083570 0.914670 0.246832
  As 0.253577 0.746700 0.247652
  As 0.250449 0.912119 0.083623
  In 0.006188 0.661486 0.328141
  In -0.007825 0.833108 0.498044
  In 0.169356 0.666330 0.506914
  In 0.172643 0.827826 0.328086
  Sb 0.084604 0.748754 0.417289
  Sb 0.084703 0.913362 0.583381
  As 0.255690 0.746798 0.584940
  Sb 0.254691 0.912973 0.417530
  In 0.001966 0.667767 0.657972
  In 0.002112 0.831394 0.834576
  In 0.173820 0.662657 0.836568
  In 0.177789 0.831589 0.665985
  Sb 0.088969 0.747304 0.749032
  Sb 0.085532 0.916748 0.920160
  As 0.254796 0.746426 0.916492
  As 0.255303 0.914336 0.748542
  In 0.330524 -0.005990 0.004838
  In 0.331881 0.172000 0.162192
  In 0.508025 0.000162 0.168824
  In 0.503687 0.161773 -0.005517
  Sb 0.418643 0.081552 0.083834
  Sb 0.418875 0.253601 0.249923
  As 0.587147 0.083166 0.249682
  Sb 0.585350 0.247615 0.081783
  In 0.336053 -0.001409 0.329510
  In 0.332512 0.163176 0.504223
  In 0.500774 -0.011809 0.499953
  In 0.508782 0.166427 0.332530
  Sb 0.420726 0.081337 0.416957
  Sb 0.417039 0.254592 0.584137
  Sb 0.581862 0.081594 0.583407
  As 0.585489 0.250426 0.415244
  In 0.336389 -0.002967 0.667079
  In 0.339626 0.161990 0.830748
  In 0.504004 0.001178 0.832031
  In 0.494848 0.163047 0.671614
  As 0.417705 0.077770 0.750423
  Sb 0.418491 0.252972 0.916362
  As 0.584244 0.080463 0.916498
  Sb 0.581650 0.251490 0.753039
  In 0.333681 0.335267 0.006275
  In 0.335267 0.503706 0.165055
  In 0.497531 0.339189 0.158860
  In 0.499042 0.502826 0.000529
  As 0.415553 0.422030 0.081896
  As 0.415482 0.586165 0.247519
  Sb 0.581153 0.418505 0.250235
  As 0.579256 0.585655 0.084672
  In 0.335449 0.342497 0.334544
  In 0.337505 0.498361 0.502672
  In 0.503004 0.335782 0.492103
  In 0.490957 0.502874 0.332006
  As 0.417306 0.419776 0.417727
  As 0.414159 0.582039 0.584431
  As 0.579075 0.415581 0.579671
  Sb 0.579893 0.586865 0.414659
  In 0.333488 0.344192 0.669050
  In 0.337481 0.504649 0.830023
  In 0.498176 0.344906 0.832450
  In 0.497021 0.497936 0.660310
  As 0.417450 0.423427 0.748526
  As 0.415061 0.583283 0.918438
  As 0.579537 0.418638 0.919756
  Sb 0.578081 0.583163 0.750354
  In 0.336201 0.666464 0.000825
  In 0.331053 0.827579 0.162489
  In 0.499113 0.666865 0.167540
  In 0.499853 0.834380 0.009922
  As 0.416874 0.747580 0.084480
  Sb 0.420580 0.910154 0.247728
  As 0.583420 0.748077 0.248516
  As 0.584879 0.916836 0.087088
  In 0.338796 0.671345 0.329747
  In 0.339039 0.826990 0.503758
  In 0.490874 0.665316 0.502119
  In 0.503716 0.825026 0.336262
  As 0.417727 0.748541 0.417108
  As 0.416394 0.913177 0.585514
  Sb 0.578827 0.751915 0.583873
  As 0.581884 0.912340 0.412604
  In 0.334921 0.665121 0.667423
  In 0.331587 0.827501 0.830181
  In 0.490179 0.667532 0.835338
  In 0.495002 0.836041 0.672557
  As 0.413873 0.748631 0.749212
  Sb 0.417057 0.914026 0.916314
  Sb 0.581035 0.751054 0.918158
  As 0.580535 0.916109 0.750762
  In 0.661379 0.001822 0.004356
  In 0.671498 0.162887 0.168946
  In 0.825929 -0.004897 0.163048
  In 0.830036 0.166520 0.003564
  As 0.747798 0.081659 0.083136
  As 0.749859 0.249462 0.246862
  Sb 0.914416 0.080214 0.246659
  As 0.914375 0.247059 0.083754
  In 0.660964 -0.005214 0.329120
  In 0.666509 0.173092 0.500860
  In 0.834388 -0.002167 0.496735
  In 0.828167 0.168781 0.327953
  Sb 0.745414 0.082183 0.414068
  As 0.748690 0.253578 0.582888
  Sb 0.914467 0.086243 0.583193
  Sb 0.913024 0.252485 0.415250
  In 0.663884 -0.005102 0.670483
  In 0.665952 0.167430 0.842852
  In 0.837785 0.005024 0.840790
  In 0.829504 0.174072 0.667265
  Sb 0.748910 0.084491 0.753450
  As 0.750250 0.248455 0.919885
  As 0.915841 0.088285 0.921853
  As 0.914803 0.248048 0.752097
  In 0.665913 0.333962 -0.006508
  In 0.663334 0.508501 0.167017
  In 0.835791 0.329741 0.168173
  In 0.835387 0.498463 0.000497
  Sb 0.747808 0.416783 0.085153
  As 0.747516 0.585687 0.248101
  As 0.913196 0.417764 0.248013
  Sb 0.917551 0.584760 0.086043
  In 0.666770 0.326347 0.330406
  In 0.659939 0.498631 0.501676
  In 0.833072 0.336402 0.506687
  In 0.829803 0.500595 0.325250
  Sb 0.747795 0.416080 0.415637
  Sb 0.750205 0.584701 0.582389
  As 0.917823 0.415882 0.585829
  Sb 0.916010 0.582611 0.415130
  In 0.662152 0.333264 0.658538
  In 0.660071 0.497032 0.837966
  In 0.831048 0.324569 0.833249
  In 0.836853 0.496862 0.665477
  Sb 0.746696 0.413885 0.749641
  Sb 0.746888 0.583958 0.919381
  Sb 0.918729 0.413220 0.914868
  Sb 0.918197 0.586801 0.749705
  In 0.663876 0.668048 0.008237
  In 0.664002 0.832853 0.168694
  In 0.824819 0.668542 0.166574
  In 0.830432 0.831924 0.008360
  As 0.745072 0.751548 0.087447
  As 0.745658 0.915172 0.248752
  Sb 0.914385 0.750774 0.250171
  As 0.912580 0.919342 0.081659
  In 0.669230 0.669967 0.328585
  In 0.663616 0.831328 0.491135
  In 0.831089 0.674570 0.495335
  In 0.827649 0.837535 0.334286
  As 0.747801 0.752278 0.412147
  Sb 0.748722 0.911884 0.581335
  As 0.915532 0.748969 0.580482
  As 0.912352 0.914649 0.416149
  In 0.667148 0.669896 0.670259
  In 0.664870 0.834824 0.827908
  In 0.825947 0.670983 0.830023
  In 0.832920 0.824685 0.665792
  As 0.746999 0.752132 0.749105
  Sb 0.748105 0.917372 0.919479
  Sb 0.914437 0.748548 0.919155
  Sb 0.914393 0.914738 0.751549
K_POINTS automatic
  2 2 2 0 0 0

HUBBARD (atomic)
U In-5p -1.0150000000000001
U Ga-4p -2.8
U As-4p 3.26
U Sb-5p 3.16
